%Chk=e5_06_methacet_3_3h2o_smd
# OPT(CalcFC,Tight) APFd 6-311+g(2d,p) SCRF(SMD,Solvent=water) geom=connectivity Int=(Ultrafine,Acc2E=12)

methyl acetate with three water molecules

0 1
 C                 -0.13516539   -0.34611877    0.25725030
 O                  1.04642657   -0.06458825    0.19807007
 O                 -1.08280319    0.57981069    0.43765042
 C                 -0.70860828   -1.72175199    0.15042152
 H                 -1.29303445   -1.94171819    1.04670968
 H                 -1.40289114   -1.76323415   -0.69235422
 H                  0.08980937   -2.45063320    0.02868938
 C                 -0.64343156    1.94244133    0.57500156
 H                 -1.53748957    2.50862640    0.82470975
 H                  0.09334604    2.02076049    1.37371825
 H                 -0.20394047    2.29996638   -0.35541105
 H                  2.20234855   -1.54654073   -0.00626519
 H                  1.99746859    1.51579617   -0.30878735
 H                 -2.90677116    0.09298030   -0.23368131
 O                  2.47870352    2.31548342   -0.56526129
 H                  3.23968631    2.00758374   -1.06188398
 O                  2.79511824   -2.30650249   -0.11105059
 H                  3.50056329   -2.17380999    0.52534711
 O                 -3.78497741   -0.14141937   -0.55691490
 H                 -4.17232920    0.67717186   -0.87428032

 1 2 2.0 3 1.0 4 1.0
 2 12 0.5 13 0.5
 3 8 1.0 14 0.5
 4 5 1.0 6 1.0 7 1.0
 5
 6
 7
 8 9 1.0 10 1.0 11 1.0
 9
 10
 11
 12 17 1.0
 13 15 1.0
 14 19 1.0
 15 16 1.0
 16
 17 18 1.0
 18
 19 20 1.0
 20

