%Chk=e5_04_gas
# opt freq apfd/6-311+g(2d,p) geom=connectivity int=(ultrafine,acc2e=12)

acetic acid gas phase

0 1
 C                  0.05567300    0.09086228    0.00000000
 C                 -1.41647866   -0.36121015    0.00000000
 H                 -2.02138639    0.39364621    0.00000000
 H                 -1.50918125   -1.27432467   -0.55002557
 H                 -1.50918125   -1.27432467    0.55002557
 O                  0.33480600    1.31791376    0.00000000
 O                  1.10078250   -0.88517364    0.00000000
 H                  1.95242020   -0.44210117    0.00000000

 1 2 1.0 6 2.0 7 1.0
 2 3 1.0 4 1.0 5 1.0
 3
 4
 5
 6
 7 8 1.0
 8

