%Chk=e5_03_aTOHoq_up
# opt freq oniom(APFD/6-311+g(2d,p):pm6) Int=(UltraFine,Acc2E=12)
scrf=(solvent=acetonitrile) geom=connectivity

alpha-tocopherol ortho quinone methide-up ONIOM Opt Freq 
PCM acetonitrile starting from gas phase optimized structure

0 1 0 1 0 1
 C                0   -8.16001400    0.21796800    1.24877700 H
 C                0   -6.88575400   -0.23792300    1.34984500 H
 C                0   -5.87553600    0.11288900    0.34412300 H
 C                0   -6.12383100    0.92564600   -0.71139200 H
 C                0   -7.47226300    1.43429300   -0.89437500 H
 C                0   -8.53986500    1.08133300    0.11328200 H
 O                0   -9.68384700    1.50306900   -0.00961000 H
 C                0   -7.83999100    2.20907500   -1.93114000 H
 H                0   -7.14670900    2.51064000   -2.70439500 H
 H                0   -8.86523700    2.54552300   -2.00543100 H
 C                0   -5.02369300    1.30696900   -1.66995900 H
 H                0   -5.06389000    2.38183500   -1.86774800 H
 H                0   -5.17769300    0.81819600   -2.64010600 H
 C                0   -6.43000800   -1.12093200    2.47848100 H
 H                0   -6.06377500   -2.07622000    2.09401500 H
 H                0   -5.58855700   -0.66566000    3.00644000 H
 H                0   -7.22800200   -1.31252300    3.19036700 H
 C                0   -9.24479800   -0.10811700    2.24309600 H
 H                0   -9.40065700   -1.18614200    2.33330500 H
 H                0   -9.00750400    0.27337300    3.24004200 H
 H                0  -10.17853900    0.34670200    1.91972300 H
 C                0   -3.64100700   -0.42789700   -0.45428900 H
 C                0   -3.64327700    0.95716700   -1.11127600 H
 O                0   -4.66522200   -0.45882100    0.59469700 H
 H                0   -3.35174300    1.69224500   -0.35670400 H
 H                0   -2.88731100    0.99245100   -1.89966400 H
 C                0   -3.96047200   -1.54393700   -1.44245600 L H 22   0.0000
 H                0   -3.25792700   -1.55974000   -2.28145600 L
 H                0   -3.92716200   -2.52745300   -0.95746600 L
 H                0   -4.97124500   -1.43633900   -1.85793400 L
 C                0   -2.35626100   -0.70425000    0.32848600 L H 22   0.0000
 H                0   -2.48002000   -1.64711800    0.90210200 L
 H                0   -2.22634200    0.07654200    1.10668200 L
 C                0   -1.10507400   -0.78606300   -0.55208500 L
 H                0   -0.98239200    0.14963700   -1.13124200 L
 H                0   -1.21857700   -1.59670000   -1.29918900 L
 C                0    0.14909400   -1.03746400    0.29604700 L
 H                0    0.03103300   -1.96909700    0.88118100 L
 H                0    0.25681000   -0.22737400    1.04342500 L
 C                0    1.42936900   -1.12049300   -0.56492200 L
 H                0    1.44555700   -0.24465400   -1.25968100 L
 C                0    2.67148300   -1.03893900    0.34952900 L
 H                0    2.76331100   -1.96889800    0.94171200 L
 H                0    2.53557100   -0.22595000    1.08890100 L
 C                0    3.96243800   -0.79395100   -0.44280900 L
 H                0    3.86711700    0.13132300   -1.04291800 L
 H                0    4.11694500   -1.61295300   -1.17300200 L
 C                0    5.17879500   -0.68973200    0.48662400 L
 H                0    5.27584600   -1.61332400    1.08762300 L
 H                0    5.01414800    0.12622500    1.21668700 L
 C                0    6.48894200   -0.43164700   -0.29038800 L
 H                0    6.31349300    0.40678300   -1.00891700 L
 C                0    7.59899300   -0.00389400    0.69499800 L
 H                0    7.90068600   -0.86687000    1.31778800 L
 H                0    7.19815300    0.74886500    1.40110400 L
 C                0    8.82399400    0.57618900   -0.02421100 L
 H                0    9.24307400   -0.17724500   -0.72009200 L
 H                0    8.51950200    1.43322900   -0.65516500 L
 C                0    9.90210200    1.01926700    0.97333400 L
 H                0   10.20920400    0.16391000    1.60379400 L
 H                0    9.47577900    1.76529800    1.67125500 L
 C                0   11.13824500    1.62116800    0.27091300 L
 H                0   10.78857900    2.36469100   -0.48818000 L
 C                0    1.44610400   -2.40486000   -1.40271100 L
 H                0    1.43173000   -3.29993600   -0.77143200 L
 H                0    0.57928800   -2.45969400   -2.06948900 L
 H                0    2.34575900   -2.46069300   -2.02581300 L
 C                0    6.90904400   -1.67300000   -1.08725200 L
 H                0    7.09801900   -2.52952600   -0.43141200 L
 H                0    6.13245000   -1.97077600   -1.79979900 L
 H                0    7.82674200   -1.48831000   -1.65623400 L
 C                0   11.95274700    0.54033300   -0.45178100 L
 H                0   12.34028100   -0.20801400    0.24765900 L
 H                0   11.34375500    0.01090000   -1.19236500 L
 H                0   12.81022700    0.97300800   -0.97716500 L
 C                0   12.01799600    2.35698500    1.29180800 L
 H                0   12.90256900    2.79037200    0.81321000 L
 H                0   11.47366600    3.17447600    1.77545500 L
 H                0   12.37153500    1.68389200    2.08004200 L

 1 2 2.0 6 1.0 18 1.0
 2 3 1.0 14 1.0
 3 4 2.0 24 1.0
 4 5 1.0 11 1.0
 5 6 1.0 8 2.0
 6 7 2.0
 7
 8 9 1.0 10 1.0
 9
 10
 11 12 1.0 13 1.0 23 1.0
 12
 13
 14 15 1.0 16 1.0 17 1.0
 15
 16
 17
 18 19 1.0 20 1.0 21 1.0
 19
 20
 21
 22 23 1.0 24 1.0 27 1.0 31 1.0
 23 25 1.0 26 1.0
 24
 25
 26
 27 28 1.0 29 1.0 30 1.0
 28
 29
 30
 31 32 1.0 33 1.0 34 1.0
 32
 33
 34 35 1.0 36 1.0 37 1.0
 35
 36
 37 38 1.0 39 1.0 40 1.0
 38
 39
 40 41 1.0 42 1.0 64 1.0
 41
 42 43 1.0 44 1.0 45 1.0
 43
 44
 45 46 1.0 47 1.0 48 1.0
 46
 47
 48 49 1.0 50 1.0 51 1.0
 49
 50
 51 52 1.0 53 1.0 68 1.0
 52
 53 54 1.0 55 1.0 56 1.0
 54
 55
 56 57 1.0 58 1.0 59 1.0
 57
 58
 59 60 1.0 61 1.0 62 1.0
 60
 61
 62 63 1.0 72 1.0 76 1.0
 63
 64 65 1.0 66 1.0 67 1.0
 65
 66
 67
 68 69 1.0 70 1.0 71 1.0
 69
 70
 71
 72 73 1.0 74 1.0 75 1.0
 73
 74
 75
 76 77 1.0 78 1.0 79 1.0
 77
 78
 79

