%Chk=e5_06_hydroxide_1_waters
# OPT FREQ APFd/6-311+g(2d,p) geom=connectivity Int=(Ultrafine,Acc2E=12)

hydroxide ion with 2 water molecules

-1 1
 O                  0.00000000    0.00000000    0.10688828
 H                  0.38920796    0.00000000   -0.77067491
 H                  0.82452422    0.00000000    1.23832976
 H                 -1.39211917    0.00000000    0.25522647
 O                 -2.34671517    0.00000000    0.35694408
 H                 -2.76124893    0.00175472   -0.50894199
 O                  1.38991226    0.00000000    2.01417534
 H                  2.30998690   -0.00007581    1.74019970

 1 2 1.0 3 0.5 4 0.5
 2
 3 7 1.0
 4 5 1.0
 5 6 1.0
 6
 7 8 1.0
 8

