# freq b3lyp/6-311+g(2d,p) scrf=(solvent=water) geom=connectivity

Methyl acetate hydrolysis SN2 TS in water

-1 1
 C                  1.24247214    0.12377397   -0.15849713
 O                  0.96172103    1.20015248   -0.70118507
 O                  0.38748666   -0.70434853    0.34371318
 C                  2.69388864   -0.32842984   -0.06738862
 H                  2.98299723   -0.77023618   -1.02501519
 H                  3.34205720    0.52948424    0.11249568
 H                  2.83669056   -1.07586837    0.71176117
 C                 -1.39760339   -0.22480242    0.21722617
 H                 -1.41786724   -0.23351976   -0.85444034
 H                 -1.68605571   -1.10381044    0.76005614
 H                 -1.27952043    0.70577858    0.73514388
 O                 -3.44345910    0.15706436    0.17092729
 H                 -3.50869975    0.97494449   -0.33703695

 1 2 2.0 3 1.5 4 1.0
 2
 3 8 0.5
 4 5 1.0 6 1.0 7 1.0
 5
 6
 7
 8 9 1.0 10 1.0 11 1.0 12 0.5
 9
 10
 11
 12 13 1.0
 13

