%Chk=e5_03_bf_up
# opt=calcfc freq oniom(APFD/6-311+g(2d,p):pm6) Int=(UltraFine,Acc2E=12)
scrf=(solvent=acetonitrile) geom=connectivity

modified alpha-tocopherol to benzofuran ring ortho quinone methide-up
ONIOM Opt Freq PCM acetonitrile starting from gas phase optimized
structure

0 1 0 1 0 1
 C                0   -7.87724400    1.29728600    0.69839200 H
 C                0   -7.16353800    0.18450500    1.02081900 H
 C                0   -5.93582600   -0.08783400    0.29840800 H
 C                0   -5.43561200    0.68844500   -0.68118300 H
 C                0   -6.11261100    1.89020600   -1.08031600 H
 C                0   -7.41100700    2.21568100   -0.37020600 H
 O                0   -8.05717000    3.21071600   -0.67220100 H
 C                0   -5.66354100    2.73785000   -2.02455200 H
 H                0   -4.74075700    2.55320000   -2.56025200 H
 H                0   -6.22755600    3.62935500   -2.26310600 H
 C                0   -7.60920800   -0.77047100    2.09464100 H
 H                0   -6.89453900   -1.57975100    2.22663600 H
 H                0   -7.73036400   -0.25231900    3.04967600 H
 H                0   -8.58171200   -1.20539300    1.84653300 H
 C                0   -9.16289900    1.64786400    1.39270300 H
 H                0   -9.90968500    0.85671300    1.27451700 H
 H                0   -9.01179900    1.78492200    2.46785200 H
 H                0   -9.56777500    2.56941600    0.98041300 H
 C                0   -4.06047700   -1.24057600   -0.37676200 H
 C                0   -4.13088100    0.11371200   -1.15894100 H
 O                0   -5.18759200   -1.18165400    0.59924800 H
 H                0   -3.28658400    0.76826600   -0.91620600 H
 H                0   -4.10459300   -0.04524300   -2.24029200 H
 C                0   -4.33598200   -2.43939900   -1.26387400 L H 19   0.0000
 H                0   -3.55924300   -2.57515500   -2.02385000 L
 H                0   -4.39522900   -3.36538700   -0.67627800 L
 H                0   -5.29987900   -2.33892700   -1.78200600 L
 C                0   -2.80521500   -1.40330800    0.47236000 L H 19   0.0000
 H                0   -2.92526700   -2.28516400    1.13582000 L
 H                0   -2.72265400   -0.54203400    1.16846900 L
 C                0   -1.52527100   -1.53988100   -0.35938200 L
 H                0   -1.45722800   -0.71656400   -1.09665000 L
 H                0   -1.55775100   -2.47672900   -0.95075800 L
 C                0   -0.27898200   -1.53667100    0.53580300 L
 H                0   -0.35049500   -2.34294300    1.29009000 L
 H                0   -0.24202500   -0.59187500    1.11236400 L
 C                0    1.02313300   -1.69780900   -0.28035700 L
 H                0    0.98725600   -0.99100600   -1.14607100 L
 C                0    2.23583500   -1.32477200    0.60031100 L
 H                0    2.38670300   -2.09600700    1.37888400 L
 H                0    2.02255100   -0.38576100    1.14707200 L
 C                0    3.51976800   -1.15336100   -0.22224000 L
 H                0    3.36064400   -0.39955900   -1.01722100 L
 H                0    3.75948700   -2.09946800   -0.74675800 L
 C                0    4.70173500   -0.73548300    0.66237100 L
 H                0    4.86284700   -1.48624400    1.45855000 L
 H                0    4.45275800    0.20746000    1.18653100 L
 C                0    6.00193500   -0.54772400   -0.15076200 L
 H                0    5.77009800    0.08066000   -1.04605600 L
 C                0    7.04766300    0.19698800    0.70824900 L
 H                0    7.41189100   -0.46638400    1.51496900 L
 H                0    6.56601600    1.05288200    1.21950000 L
 C                0    8.23081100    0.70452000   -0.12664700 L
 H                0    8.73127400   -0.14817700   -0.62659600 L
 H                0    7.86395000    1.35860700   -0.94089000 L
 C                0    9.24257500    1.46644400    0.73907500 L
 H                0    9.61375300    0.81356300    1.55108000 L
 H                0    8.73507100    2.31050100    1.24448200 L
 C                0   10.43243400    2.00270600   -0.08580600 L
 H                0   10.03163100    2.51353800   -0.99671400 L
 C                0    1.15573800   -3.12529400   -0.82493900 L
 H                0    1.20685200   -3.86340500   -0.01717600 L
 H                0    0.30456800   -3.39240000   -1.45993500 L
 H                0    2.06453900   -3.23801800   -1.42658000 L
 C                0    6.54728200   -1.89735100   -0.63408300 L
 H                0    6.79692900   -2.55617400    0.20442300 L
 H                0    5.81562200   -2.42267200   -1.25714100 L
 H                0    7.45717800   -1.76795500   -1.23018400 L
 C                0   11.35760800    0.86542300   -0.53808500 L
 H                0   11.79760400    0.33949100    0.31585000 L
 H                0   10.81533100    0.12385200   -1.13443800 L
 H                0   12.18244200    1.24332000   -1.15074400 L
 C                0   11.21953300    3.03482600    0.73443500 L
 H                0   12.07011700    3.42682000    0.16681500 L
 H                0   10.59241500    3.88714300    1.01515100 L
 H                0   11.61717500    2.59937200    1.65725600 L

 1 2 2.0 6 1.0 15 1.0
 2 3 1.0 11 1.0
 3 4 2.0 21 1.0
 4 5 1.5 20 1.0
 5 6 1.0 8 2.0
 6 7 2.0
 7
 8 9 1.0 10 1.0
 9
 10
 11 12 1.0 13 1.0 14 1.0
 12
 13
 14
 15 16 1.0 17 1.0 18 1.0
 16
 17
 18
 19 20 1.0 21 1.0 24 1.0 28 1.0
 20 22 1.0 23 1.0
 21
 22
 23
 24 25 1.0 26 1.0 27 1.0
 25
 26
 27
 28 29 1.0 30 1.0 31 1.0
 29
 30
 31 32 1.0 33 1.0 34 1.0
 32
 33
 34 35 1.0 36 1.0 37 1.0
 35
 36
 37 38 1.0 39 1.0 61 1.0
 38
 39 40 1.0 41 1.0 42 1.0
 40
 41
 42 43 1.0 44 1.0 45 1.0
 43
 44
 45 46 1.0 47 1.0 48 1.0
 46
 47
 48 49 1.0 50 1.0 65 1.0
 49
 50 51 1.0 52 1.0 53 1.0
 51
 52
 53 54 1.0 55 1.0 56 1.0
 54
 55
 56 57 1.0 58 1.0 59 1.0
 57
 58
 59 60 1.0 69 1.0 73 1.0
 60
 61 62 1.0 63 1.0 64 1.0
 62
 63
 64
 65 66 1.0 67 1.0 68 1.0
 66
 67
 68
 69 70 1.0 71 1.0 72 1.0
 70
 71
 72
 73 74 1.0 75 1.0 76 1.0
 74
 75
 76

