# freq b3lyp/6-311+g(2d,p) scrf=(solvent=water) geom=connectivity

Methyl acetate hydrolysis BAC2 TS in water

-1 1
 C                  0.09143081    0.49076598   -0.76688492
 O                 -1.07877433    0.74942688   -0.47557475
 O                  0.58296411   -0.79377612   -0.64285057
 C                 -0.39410413   -1.83254846   -0.61543024
 H                  0.15747600   -2.76159602   -0.48034935
 H                 -0.94610196   -1.86562312   -1.55709717
 H                 -1.09667728   -1.69604983    0.20794622
 C                  1.22043321    1.47938431   -0.60085128
 H                  2.10455618    1.17468209   -1.15635409
 H                  1.47585447    1.53903779    0.46346875
 H                  0.89894642    2.46145688   -0.93852880
 O                  0.12454365    0.60813171   -2.87303777
 H                 -0.82668598    0.72272273   -2.97786660

 1 2 2.0 3 1.0 8 1.0 12 0.5
 2
 3 4 1.0
 4 5 1.0 6 1.0 7 1.0
 5
 6
 7
 8 9 1.0 10 1.0 11 1.0
 9
 10
 11
 12 13 1.0
 13

