%Chk=e5_06_hydroxide_2_2h2o
# OPT=CalcAll APFd 6-311+g(2d,p) geom=connectivity Int=(Ultrafine,Acc2E=12)

hydroxide ion with 2 water molecules

-1 1
 O                  0.00005200    0.56517800    0.03849000
 H                 -0.00040600    1.47783800    0.33467500
 H                  1.42455300    0.08950100   -0.08981900
 H                 -1.42448000    0.08883100   -0.08960900
 O                 -2.40010300   -0.27183700   -0.10475800
 H                 -2.39099700   -0.91440500    0.60685700
 O                  2.39969600   -0.27288000   -0.10582900
 H                  2.39417200   -0.90545200    0.61467600

 1 2 1.0 3 0.5 4 0.5
 2
 3 7 1.0
 4 5 1.0
 5 6 1.0
 6
 7 8 1.0
 8

