%Chk=e5_03_aTOHoq_down
# opt freq oniom(APFD/6-311+g(2d,p):pm6) Int=(UltraFine,Acc2E=12)
scrf=(solvent=acetonitrile) geom=connectivity

alpha-tocopherol ortho quinone methide-down ONIOM Opt Freq 
PCM acetonitrile starting from gas phase optimized structure

0 1 0 1 0 1
 C                0   -8.25350100   -0.21156400    1.13169300 H
 C                0   -6.90659200   -0.75773400    1.17378500 H
 C                0   -5.92269600   -0.12191500    0.48584500 H
 C                0   -6.16546200    1.08819900   -0.30457000 H
 C                0   -7.40676200    1.63183000   -0.40528700 H
 C                0   -8.53898900    1.01609800    0.30534500 H
 O                0   -9.66980800    1.48413000    0.22894300 H
 C                0   -7.69527000    2.85608300   -1.22978300 H
 H                0   -7.37539200    2.73018800   -2.26828100 H
 H                0   -8.76387300    3.05919500   -1.21693500 H
 C                0   -5.00864600    1.72123900   -1.04807400 H
 H                0   -5.05947400    2.80702000   -0.94353800 H
 H                0   -5.14188700    1.52507700   -2.12002100 H
 C                0   -6.62963000   -1.99239500    1.98610000 H
 H                0   -5.59883000   -2.31423100    1.86427600 H
 H                0   -6.80483600   -1.81235800    3.05168300 H
 H                0   -7.28630500   -2.81440700    1.68671500 H
 C                0   -9.28856200   -0.74918800    1.80415600 H
 H                0  -10.26655900   -0.29345200    1.72654400 H
 H                0   -9.18070100   -1.62662200    2.42640500 H
 C                0   -3.64072800   -0.29477400   -0.40804000 H
 C                0   -3.63440800    1.22218000   -0.60669700 H
 O                0   -4.65073000   -0.61310600    0.59717000 H
 H                0   -3.35011900    1.68505100    0.34184400 H
 H                0   -2.87628700    1.50559100   -1.34134500 H
 C                0   -3.96704700   -1.05826900   -1.68818700 L H 21   0.0000
 H                0   -3.27329500   -0.81349400   -2.49813100 L
 H                0   -3.92268900   -2.14269900   -1.52432300 L
 H                0   -4.98303300   -0.84302500   -2.04213400 L
 C                0   -2.35451300   -0.80316700    0.24582000 L H 21   0.0000
 H                0   -2.48442100   -1.87373300    0.51147900 L
 H                0   -2.21411600   -0.29428000    1.22252500 L
 C                0   -1.10951900   -0.62563600   -0.62910600 L
 H                0   -0.99264600    0.43647700   -0.91925000 L
 H                0   -1.22673900   -1.19109800   -1.57507700 L
 C                0    0.15181100   -1.10230600    0.10399000 L
 H                0    0.03398800   -2.15726900    0.41620300 L
 H                0    0.27281800   -0.52588500    1.04174800 L
 C                0    1.42121800   -0.95323500   -0.76419200 L
 H                0    1.42919000    0.07405800   -1.20542400 L
 C                0    2.67549800   -1.11034500    0.12328300 L
 H                0    2.77212300   -2.16153100    0.45429000 L
 H                0    2.55200100   -0.51559900    1.04909000 L
 C                0    3.95636400   -0.66900200   -0.59712000 L
 H                0    3.85354700    0.37765800   -0.94252500 L
 H                0    4.10122600   -1.27632700   -1.51256300 L
 C                0    5.18496800   -0.79918500    0.31271900 L
 H                0    5.28691300   -1.84314300    0.66396400 L
 H                0    5.03259400   -0.19039100    1.22484100 L
 C                0    6.48531800   -0.35598800   -0.39409500 L
 H                0    6.30162700    0.63266400   -0.88286100 L
 C                0    7.60903800   -0.18053700    0.65115400 L
 H                0    7.91762200   -1.16912100    1.03982800 L
 H                0    7.21889100    0.37593600    1.52523000 L
 C                0    8.82515600    0.55994400    0.07916300 L
 H                0    9.23375100    0.00003800   -0.78519400 L
 H                0    8.51342200    1.54453600   -0.31926700 L
 C                0    9.91731500    0.74813400    1.14004300 L
 H                0   10.23167300   -0.23465300    1.53845300 L
 H                0    9.50162300    1.30045500    2.00464500 L
 C                0   11.14466100    1.50558800    0.58900600 L
 H                0   10.78575600    2.41114000    0.03902200 L
 C                0    1.42548000   -1.97325500   -1.90940900 L
 H                0    1.42676700   -3.00247000   -1.53434900 L
 H                0    0.54526500   -1.85915700   -2.55071700 L
 H                0    2.31241000   -1.85644900   -2.54210100 L
 C                0    6.89298800   -1.36342600   -1.47640700 L
 H                0    7.09128000   -2.35372800   -1.05276300 L
 H                0    6.10564900   -1.48045200   -2.22868900 L
 H                0    7.80218000   -1.04231400   -1.99624800 L
 C                0   11.94768800    0.63527200   -0.38650300 L
 H                0   12.34366700   -0.26032100    0.10394600 L
 H                0   11.32787700    0.30126200   -1.22549700 L
 H                0   12.79852400    1.18469400   -0.80209200 L
 C                0   12.03930100    1.97187200    1.74650100 L
 H                0   12.91789200    2.51060400    1.37610900 L
 H                0   11.50278200    2.64564700    2.42227800 L
 H                0   12.40257000    1.12752700    2.34188100 L
 H                0   -7.17699300    3.73810000   -0.83935700 H

 1 2 1.0 6 1.0 18 2.0
 2 3 2.0 14 1.0
 3 4 1.0 23 1.0
 4 5 2.0 11 1.0
 5 6 1.0 8 1.0
 6 7 2.0
 7
 8 9 1.0 10 1.0 79 1.0
 9
 10
 11 12 1.0 13 1.0 22 1.0
 12
 13
 14 15 1.0 16 1.0 17 1.0
 15
 16
 17
 18 19 1.0 20 1.0
 19
 20
 21 22 1.0 23 1.0 26 1.0 30 1.0
 22 24 1.0 25 1.0
 23
 24
 25
 26 27 1.0 28 1.0 29 1.0
 27
 28
 29
 30 31 1.0 32 1.0 33 1.0
 31
 32
 33 34 1.0 35 1.0 36 1.0
 34
 35
 36 37 1.0 38 1.0 39 1.0
 37
 38
 39 40 1.0 41 1.0 63 1.0
 40
 41 42 1.0 43 1.0 44 1.0
 42
 43
 44 45 1.0 46 1.0 47 1.0
 45
 46
 47 48 1.0 49 1.0 50 1.0
 48
 49
 50 51 1.0 52 1.0 67 1.0
 51
 52 53 1.0 54 1.0 55 1.0
 53
 54
 55 56 1.0 57 1.0 58 1.0
 56
 57
 58 59 1.0 60 1.0 61 1.0
 59
 60
 61 62 1.0 71 1.0 75 1.0
 62
 63 64 1.0 65 1.0 66 1.0
 64
 65
 66
 67 68 1.0 69 1.0 70 1.0
 68
 69
 70
 71 72 1.0 73 1.0 74 1.0
 72
 73
 74
 75 76 1.0 77 1.0 78 1.0
 76
 77
 78
 79

