%Chk=e5_06_methanol_3_1h2o_smd
# OPT(CalcFC,Tight) FREQ APFd/6-311+g(2d,p) SCRF(SMD,Solvent=water) geom=connectivity Int=(Ultrafine,Acc2E=12)

methanol with 1 water molecule

0 1
 C                 -1.41103057   -0.51026811   -0.00068379
 H                 -1.12674212   -1.12004324   -0.85719470
 H                 -2.48998814   -0.32867160   -0.04091385
 H                 -1.16454113   -1.06107803    0.91290225
 O                 -0.67436441    0.70280943   -0.10217619
 H                 -0.89342913    1.26280759    0.64724321
 H                  1.11572205    0.20240322   -0.04378424
 O                  1.98505127   -0.20482160    0.10158290
 H                  2.53966702    0.12228812   -0.60940360

 1 2 1.0 3 1.0 4 1.0 5 1.0
 2
 3
 4
 5 6 1.0 7 0.5
 6
 7 8 1.0
 8 9 1.0
 9

