%Chk=e5_03_bf_down
# opt freq oniom(APFD/6-311+g(2d,p):pm6) Int=(UltraFine,Acc2E=12)
scrf=(solvent=acetonitrile) geom=connectivity

modified alpha-tocopherol to benzofuran ring ortho quinone methide-down 
ONIOM Opt Freq PCM acetonitrile starting from gas phase optimized
structure

0 1 0 1 0 1
 C                0   -8.02087400    1.18050900    0.72322500 H
 C                0   -7.19661100    0.06840200    1.18338400 H
 C                0   -6.00996100   -0.09482300    0.56294500 H
 C                0   -5.51672000    0.75073000   -0.50977900 H
 C                0   -6.21781800    1.79061300   -1.00393800 H
 C                0   -7.54044500    2.06868600   -0.40922900 H
 O                0   -8.22147100    2.99817500   -0.82387900 H
 C                0   -5.75260800    2.69618400   -2.10331000 H
 H                0   -4.77950600    2.39593700   -2.49201300 H
 H                0   -6.47399000    2.70692400   -2.92378800 H
 C                0   -7.65756800   -0.83894500    2.28728100 H
 H                0   -6.92748200   -1.62652000    2.46610800 H
 H                0   -7.79945100   -0.28917800    3.22307800 H
 H                0   -8.61440000   -1.30929600    2.04128100 H
 C                0   -9.22091600    1.47473600    1.25549800 H
 H                0   -9.78612900    2.31100900    0.86644500 H
 H                0   -9.64736300    0.90119100    2.06710700 H
 C                0   -4.06262800   -1.13012300   -0.16991400 H
 C                0   -4.14619300    0.25170600   -0.87989900 H
 O                0   -5.10573900   -1.06784700    0.86971400 H
 H                0   -3.38023100    0.93281700   -0.49669000 H
 H                0   -3.99509500    0.17208400   -1.95673100 H
 C                0   -4.42300800   -2.27335400   -1.10343900 L H 18   0.0000
 H                0   -3.66643500   -2.42506600   -1.88009200 L
 H                0   -4.52739500   -3.21661300   -0.54999500 L
 H                0   -5.38704800   -2.09923400   -1.60007200 L
 C                0   -2.75915300   -1.37098400    0.58216300 L H 18   0.0000
 H                0   -2.83875600   -2.31931000    1.15421300 L
 H                0   -2.63773600   -0.58907500    1.36159300 L
 C                0   -1.52961600   -1.40774400   -0.33168900 L
 H                0   -1.47362700   -0.48260200   -0.93725100 L
 H                0   -1.62147100   -2.24137100   -1.05630500 L
 C                0   -0.24013300   -1.57112100    0.48388000 L
 H                0   -0.28277500   -2.50304800    1.07880500 L
 H                0   -0.16453400   -0.74936200    1.22259500 L
 C                0    1.01930700   -1.57876800   -0.41114600 L
 H                0    0.95732800   -0.71243700   -1.11534100 L
 C                0    2.27767800   -1.40206600    0.46687700 L
 H                0    2.45659900   -2.32086600    1.05648700 L
 H                0    2.10292400   -0.59978900    1.20983800 L
 C                0    3.52244400   -1.06225800   -0.36355200 L
 H                0    3.33875200   -0.14933300   -0.96215300 L
 H                0    3.71800800   -1.86978300   -1.09653000 L
 C                0    4.75384200   -0.86100700    0.52939000 L
 H                0    4.94816700   -1.77727600    1.11781600 L
 H                0    4.54300400   -0.06756000    1.27235800 L
 C                0    6.01206900   -0.48506900   -0.28445500 L
 H                0    5.74296700    0.34139600   -0.98777400 L
 C                0    7.11209700    0.02796300    0.67103200 L
 H                0    7.51032800   -0.81220300    1.27028600 L
 H                0    6.66992000    0.73290900    1.40141200 L
 C                0    8.25541400    0.72456000   -0.07864100 L
 H                0    8.71547600    0.02101300   -0.80033800 L
 H                0    7.85452200    1.55946700   -0.68494100 L
 C                0    9.32359400    1.24862500    0.88989800 L
 H                0    9.73047600    0.41483900    1.49210400 L
 H                0    8.85605500    1.94020900    1.61692700 L
 C                0   10.47301800    1.97420300    0.15772700 L
 H                0   10.02928300    2.69592200   -0.57272200 L
 C                0    1.10057800   -2.86914000   -1.23571300 L
 H                0    1.15807100   -3.75585900   -0.59511000 L
 H                0    0.22519000   -2.98767500   -1.88249800 L
 H                0    1.98838300   -2.87422800   -1.87811000 L
 C                0    6.51163500   -1.67870100   -1.10787200 L
 H                0    6.78943900   -2.52317900   -0.46822300 L
 H                0    5.74321000   -2.03287400   -1.80317400 L
 H                0    7.39470300   -1.41205900   -1.69879200 L
 C                0   11.35583900    0.98617500   -0.61577200 L
 H                0   11.83464700    0.26353400    0.05351500 L
 H                0   10.77128900    0.41718400   -1.34663000 L
 H                0   12.15103100    1.50531900   -1.16046200 L
 C                0   11.31866600    2.76942700    1.16277800 L
 H                0   12.14153500    3.29133300    0.66293000 L
 H                0   10.71990000    3.52421400    1.68267500 L
 H                0   11.76121300    2.11764200    1.92348700 L
 H                0   -5.68289900    3.72772700   -1.74839900 H

 1 2 1.0 6 1.0 15 2.0
 2 3 2.0 11 1.0
 3 4 1.0 20 1.0
 4 5 2.0 19 1.0
 5 6 1.0 8 1.0
 6 7 2.0
 7
 8 9 1.0 10 1.0 76 1.0
 9
 10
 11 12 1.0 13 1.0 14 1.0
 12
 13
 14
 15 16 1.0 17 1.0
 16
 17
 18 19 1.0 20 1.0 23 1.0 27 1.0
 19 21 1.0 22 1.0
 20
 21
 22
 23 24 1.0 25 1.0 26 1.0
 24
 25
 26
 27 28 1.0 29 1.0 30 1.0
 28
 29
 30 31 1.0 32 1.0 33 1.0
 31
 32
 33 34 1.0 35 1.0 36 1.0
 34
 35
 36 37 1.0 38 1.0 60 1.0
 37
 38 39 1.0 40 1.0 41 1.0
 39
 40
 41 42 1.0 43 1.0 44 1.0
 42
 43
 44 45 1.0 46 1.0 47 1.0
 45
 46
 47 48 1.0 49 1.0 64 1.0
 48
 49 50 1.0 51 1.0 52 1.0
 50
 51
 52 53 1.0 54 1.0 55 1.0
 53
 54
 55 56 1.0 57 1.0 58 1.0
 56
 57
 58 59 1.0 68 1.0 72 1.0
 59
 60 61 1.0 62 1.0 63 1.0
 61
 62
 63
 64 65 1.0 66 1.0 67 1.0
 65
 66
 67
 68 69 1.0 70 1.0 71 1.0
 69
 70
 71
 72 73 1.0 74 1.0 75 1.0
 73
 74
 75
 76

