%Chk=x5_03_ml4
# opt freq apfd/6-311+g(2d,p) geom=connectivity int=(ultrafine,acc2e=12) scrf(solvent=water)

methyl-(S)-lactate conformer 4

0 1
 C                 -1.90323400    0.72264500    0.76506900
 H                 -1.57111100    0.34986000    1.73684200
 H                 -1.72212100    1.79762600    0.71452600
 H                 -2.97896300    0.55249600    0.67394400
 C                 -1.16555500    0.00299100   -0.36101100
 H                 -1.49524700    0.40546200   -1.32742500
 C                  0.31052200    0.34467900   -0.26750000
 C                  2.45321000   -0.36240000    0.34316500
 H                  2.90010100   -1.27634500    0.72530000
 H                  2.88780200   -0.09808500   -0.62091200
 H                  2.59780500    0.45796900    1.04628400
 O                 -1.34960300   -1.39917900   -0.32264700
 H                 -2.29705900   -1.56876200   -0.32914300
 O                  0.73210600    1.44017300   -0.56074600
 O                  1.05613800   -0.64945700    0.19617400

 1 2 1.0 3 1.0 4 1.0 5 1.0
 2
 3
 4
 5 6 1.0 7 1.0 12 1.0
 6
 7 14 2.0 15 1.5
 8 9 1.0 10 1.0 11 1.0 15 1.0
 9
 10
 11
 12 13 1.0
 13
 14
 15

