%Chk=x5_03_ml2a
# opt freq apfd/6-311+g(2d,p) scrf=(solvent=water) geom=connectivity
int=(ultrafine,acc2e=12)

methyl-(S)-lactate conformer 2a

0 1
 C                 -2.11698800   -0.70243200   -0.44433100
 H                 -1.92572300   -0.57260400   -1.51212100
 H                 -2.01797100   -1.75867000   -0.19434400
 H                 -3.13841400   -0.38361900   -0.23033000
 C                 -1.14305300    0.12679300    0.36923700
 H                 -1.34512900   -0.02601100    1.44084700
 C                  0.28350600   -0.37685400    0.16799000
 C                  2.51120900    0.24487500   -0.22650400
 H                  3.04570900    1.17101900   -0.41969100
 H                  2.87252100   -0.22332600    0.68902200
 H                  2.62638000   -0.44550900   -1.06179100
 O                 -1.32484700    1.48297200    0.02592700
 H                 -0.60933400    1.99954000    0.41174100
 O                  0.60138400   -1.53891500    0.26472900
 O                  1.13395200    0.61655400   -0.08086600

 1 2 1.0 3 1.0 4 1.0 5 1.0
 2
 3
 4
 5 6 1.0 7 1.0 12 1.0
 6
 7 14 2.0 15 1.5
 8 9 1.0 10 1.0 11 1.0 15 1.0
 9
 10
 11
 12 13 1.0
 13
 14
 15

