%Chk=x5_05_prop
# opt freq apfd/6-311+g(2d,p) geom=connectivity int=(ultrafine,acc2e=12)

Propene

0 1
 C                 -1.15605849    0.19366649   -0.01805999
 C                  0.13643819    0.12376869   -0.41947456
 H                 -1.70918414    1.09996022   -0.15066352
 H                 -1.62342532   -0.65743930    0.43148111
 C                  0.93252502   -1.18061725   -0.22862626
 H                  0.60380544    0.97487492   -0.86901438
 H                  1.96813093   -0.94949402   -0.09077682
 H                  0.56536330   -1.69989302    0.63186484
 H                  0.81720612   -1.79875883   -1.09436440

 1 2 2.0 3 1.0 4 1.0
 2 5 1.0 6 1.0
 3
 4
 5 7 1.0 8 1.0 9 1.0
 6
 7
 8
 9

--link1--
%Chk=x5_05_prop
# scrf=(smd,solvent=water) int=(ultrafine,acc2e=12) apfd/6-311+g(2d,p) geom=allcheck guess=read opt freq


