%Chk=x5_06_p_smd
# OPT(CalcFC,Tight) FREQ APFd/6-311+g(2d,p) SCRF(SMD,Solvent=water) Geom=Connectivity INT(Ultrafine,Acc2E=12)

acetate ion + methanol with 5 water molecules

-1 1
 C                  1.04985800   -1.36455800    0.36326700
 O                 -0.13116800   -1.62333800    0.69466500
 O                  1.79504100   -0.53125900    0.94306100
 C                  1.65066800   -2.11597800   -0.81756900
 H                  0.89422800   -2.67921700   -1.36465400
 H                  2.15199700   -1.41377100   -1.48742100
 H                  2.41275800   -2.80755600   -0.44580300
 H                 -1.18251700   -2.52215700   -0.23040300
 H                 -1.73188800   -0.71566800    1.20578000
 H                  3.07899500    0.17726900    0.16810800
 H                  1.29218900    1.20207800    1.18132800
 O                 -2.68541300   -0.58362600    1.06114800
 H                 -2.86113100   -1.19976700    0.33805500
 O                 -1.94121700   -2.96225400   -0.69533000
 H                 -2.18619900   -3.68245500   -0.11078700
 O                  1.36926500    2.15403700    0.96232100
 H                  2.19817600    2.16373200    0.46336500
 O                  3.74876700    0.79385300   -0.23258500
 H                  4.49001800    0.76706500    0.37555700
 C                 -0.57146600    1.27693300   -1.56621900
 H                 -1.29781100    1.32297000   -2.38031000
 H                 -0.81882200    0.41339100   -0.93876600
 H                  0.42614000    1.12032100   -1.99802200
 O                 -0.64742900    2.49455900   -0.85420200
 H                  0.03771400    2.46132000   -0.15226900
 H                 -2.40774500    2.39726900   -0.09550500
 O                 -3.27593800    2.13185000    0.24938700
 H                 -3.12572400    1.22621300    0.56716700

 1 2 2.0 3 2.0 4 1.0 24 0.5
 2 8 0.5 9 0.5
 3 10 0.5 11 0.5
 4 5 1.0 6 1.0 7 1.0
 5
 6
 7
 8 14 1.0
 9 12 1.0
 10 18 1.0
 11 16 1.0
 12 13 1.0 28 0.5
 13
 14 15 1.0
 15
 16 17 1.0 25 0.5
 17
 18 19 1.0
 19
 20 21 1.0 22 1.0 23 1.0 24 1.0
 21
 22
 23
 24 25 1.0 26 0.5
 25
 26 27 1.0
 27 28 1.0
 28

