%Chk=x5_03_ml1
# opt freq apfd/6-311+g(2d,p) scrf=(solvent=water) geom=connectivity
int=(ultrafine,acc2e=12)

methyl-(S)-lactate conformer 1

0 1
 C                 -1.50154000    1.39389200    0.42580400
 H                 -1.46428300    1.15731800    1.49188300
 H                 -0.82985500    2.22971000    0.22360800
 H                 -2.51959800    1.69368600    0.17116500
 C                 -1.11388700    0.17499900   -0.40480700
 H                 -1.10148300    0.44714000   -1.46779900
 C                  0.27975800   -0.30106300   -0.04642600
 C                  2.55803900    0.23724700    0.00844100
 H                  3.16780500    1.08839200   -0.28156000
 H                  2.64699300    0.04902300    1.07814900
 H                  2.85154600   -0.65212700   -0.54884100
 O                 -2.01901900   -0.89008900   -0.21719900
 H                 -1.51065700   -1.60669000    0.19210500
 O                  0.48881800   -1.39092400    0.44062000
 O                  1.20836500    0.60140000   -0.31801900

 1 2 1.0 3 1.0 4 1.0 5 1.0
 2
 3
 4
 5 6 1.0 7 1.0 12 1.0
 6
 7 14 2.0 15 1.5
 8 9 1.0 10 1.0 11 1.0 15 1.0
 9
 10
 11
 12 13 1.0
 13
 14
 15



