%chk=x5_05_ba.chk
# opt freq apfd/6-311+g(2d,p) geom=connectivity int=(ultrafine,acc2e=12)

Benzamide in water

0 1
 C                 -0.12655811    0.37085785   -0.61772635
 C                  0.18396072    1.43658957    0.23767760
 C                 -0.73519528    2.47838883    0.42133084
 C                 -1.96487020    2.45445626   -0.25041970
 C                 -2.27539026    1.38872305   -1.10582135
 C                 -1.35623402    0.34692408   -1.28947504
 H                  0.57523810   -0.42457876   -0.75795005
 H                  1.12284428    1.45486198    0.75057503
 H                 -2.66666542    3.24989407   -0.11019785
 H                 -3.21427519    1.37044897   -1.61871620
 H                 -1.59332300   -0.46678691   -1.94259313
 C                 -0.39396579    3.64952260    1.36133516
 O                 -1.21933071    4.58501539    1.52624894
 N                  0.89590334    3.67462710    2.06596797
 H                  1.20037498    2.73765881    2.23739562
 H                  0.79090660    4.15552582    2.93643458

 1 2 1.5 6 1.5 7 1.0
 2 3 1.5 8 1.0
 3 4 1.5 12 1.0
 4 5 1.5 9 1.0
 5 6 1.5 10 1.0
 6 11 1.0
 7
 8
 9
 10
 11
 12 13 2.0 14 1.0
 13
 14 15 1.0 16 1.0
 15
 16

--link1--
%Chk=x5_05_ba
# scrf=(smd,solvent=water) int=(ultrafine,acc2e=12) apfd/6-311+g(2d,p) geom=allcheck guess=read opt freq




