%Chk=x5_05_6feth
# opt freq apfd/6-311+g(2d,p) geom=connectivity int=(ultrafine,acc2e=12)

Hexafluoroethane

0 1
 C                 -0.39211716   -0.19108008   -0.00488844
 C                  1.14788284   -0.19104201   -0.00487145
 F                 -0.84214862    1.08170100   -0.00491329
 F                 -0.84211359   -0.82747009    1.09738692
 F                 -0.84208927   -0.82750452   -1.10715385
 F                  1.59787927    0.44534800   -1.10714681
 F                  1.59785495    0.44538243    1.09739395
 F                  1.59791430   -1.46382309   -0.00484661

 1 2 1.0 3 1.0 4 1.0 5 1.0
 2 6 1.0 7 1.0 8 1.0
 3
 4
 5
 6
 7
 8

--link1--
%Chk=x5_05_6feth
# scrf=(smd,solvent=water) int=(ultrafine,acc2e=12) apfd/6-311+g(2d,p) geom=allcheck guess=read opt freq

