%Chk=x5_02_anti
# opt freq APFD/6-311+g(2d,p) geom=connectivity Int=(UltraFine,Acc2E=12)

Anti furfuraldehyde: gas phase

0 1
 C                 -0.44955547    0.37623662    0.00445260
 C                  0.89480332    0.44035034    0.00412396
 C                  1.25302263    1.90329973   -0.05072146
 C                  0.09013854    2.58032123   -0.07815123
 O                 -1.04589743    1.68311381   -0.23059835
 H                 -1.00956042   -0.52210566    0.16025892
 H                  1.57530871   -0.38425804    0.04694275
 H                  2.23786599    2.32159286   -0.05451565
 C                 -0.02432894    4.11150172    0.04010061
 O                  1.01301514    4.81177458    0.17088953
 H                 -0.98590078    4.57994162    0.01105461

 1 2 2.0 5 1.0 6 1.0
 2 3 1.0 7 1.0
 3 4 2.0 8 1.0
 4 5 1.0 9 1.0
 5
 6
 7
 8
 9 10 2.0 11 1.0
 10
 11

--link1--
%Chk=x5_02_anti
# opt freq APFD/6-311+g(2d,p) geom=connectivity scrf=(solvent=acetone) Int=(UltraFine,Acc2E=12)

Anti furfuraldehyde in acetone

0 1
 C                 -0.44955547    0.37623662    0.00445260
 C                  0.89480332    0.44035034    0.00412396
 C                  1.25302263    1.90329973   -0.05072146
 C                  0.09013854    2.58032123   -0.07815123
 O                 -1.04589743    1.68311381   -0.23059835
 H                 -1.00956042   -0.52210566    0.16025892
 H                  1.57530871   -0.38425804    0.04694275
 H                  2.23786599    2.32159286   -0.05451565
 C                 -0.02432894    4.11150172    0.04010061
 O                  1.01301514    4.81177458    0.17088953
 H                 -0.98590078    4.57994162    0.01105461

 1 2 2.0 5 1.0 6 1.0
 2 3 1.0 7 1.0
 3 4 2.0 8 1.0
 4 5 1.0 9 1.0
 5
 6
 7
 8
 9 10 2.0 11 1.0
 10
 11

--link1--
%Chk=x5_02_anti
# opt freq APFD/6-311+g(2d,p) geom=connectivity scrf(solvent=dibutylether) Int=(UltraFine,Acc2E=12)

Anti furfuraldehyde in dibutylether

0 1
 C                 -0.44955547    0.37623662    0.00445260
 C                  0.89480332    0.44035034    0.00412396
 C                  1.25302263    1.90329973   -0.05072146
 C                  0.09013854    2.58032123   -0.07815123
 O                 -1.04589743    1.68311381   -0.23059835
 H                 -1.00956042   -0.52210566    0.16025892
 H                  1.57530871   -0.38425804    0.04694275
 H                  2.23786599    2.32159286   -0.05451565
 C                 -0.02432894    4.11150172    0.04010061
 O                  1.01301514    4.81177458    0.17088953
 H                 -0.98590078    4.57994162    0.01105461

 1 2 2.0 5 1.0 6 1.0
 2 3 1.0 7 1.0
 3 4 2.0 8 1.0
 4 5 1.0 9 1.0
 5
 6
 7
 8
 9 10 2.0 11 1.0
 10
 11

--link1--
%Chk=x5_02_anti
# opt freq APFD/6-311+g(2d,p) geom=connectivity scrf(solvent=diethylether) Int=(UltraFine,Acc2E=12)

Anti furfuraldehyde in diethylether

0 1
 C                 -0.44955547    0.37623662    0.00445260
 C                  0.89480332    0.44035034    0.00412396
 C                  1.25302263    1.90329973   -0.05072146
 C                  0.09013854    2.58032123   -0.07815123
 O                 -1.04589743    1.68311381   -0.23059835
 H                 -1.00956042   -0.52210566    0.16025892
 H                  1.57530871   -0.38425804    0.04694275
 H                  2.23786599    2.32159286   -0.05451565
 C                 -0.02432894    4.11150172    0.04010061
 O                  1.01301514    4.81177458    0.17088953
 H                 -0.98590078    4.57994162    0.01105461

 1 2 2.0 5 1.0 6 1.0
 2 3 1.0 7 1.0
 3 4 2.0 8 1.0
 4 5 1.0 9 1.0
 5
 6
 7
 8
 9 10 2.0 11 1.0
 10
 11

--Link1--
%Chk=x5_02_anti
# opt freq APFD/6-311+g(2d,p) geom=connectivity scrf(solvent=methylcyclohexane) Int=(UltraFine,Acc2E=12)

Anti furfuraldehyde in methylcyclohexane

0 1
 C                 -0.44955547    0.37623662    0.00445260
 C                  0.89480332    0.44035034    0.00412396
 C                  1.25302263    1.90329973   -0.05072146
 C                  0.09013854    2.58032123   -0.07815123
 O                 -1.04589743    1.68311381   -0.23059835
 H                 -1.00956042   -0.52210566    0.16025892
 H                  1.57530871   -0.38425804    0.04694275
 H                  2.23786599    2.32159286   -0.05451565
 C                 -0.02432894    4.11150172    0.04010061
 O                  1.01301514    4.81177458    0.17088953
 H                 -0.98590078    4.57994162    0.01105461

 1 2 2.0 5 1.0 6 1.0
 2 3 1.0 7 1.0
 3 4 2.0 8 1.0
 4 5 1.0 9 1.0
 5
 6
 7
 8
 9 10 2.0 11 1.0
 10
 11

--link1--
%Chk=x5_02_anti
# opt freq APFD/6-311+g(2d,p) geom=connectivity scrf(solvent=tetrahydrofuran) Int=(UltraFine,Acc2E=12)

Anti furfuraldehyde in tetrahydrofuran

0 1
 C                 -0.44955547    0.37623662    0.00445260
 C                  0.89480332    0.44035034    0.00412396
 C                  1.25302263    1.90329973   -0.05072146
 C                  0.09013854    2.58032123   -0.07815123
 O                 -1.04589743    1.68311381   -0.23059835
 H                 -1.00956042   -0.52210566    0.16025892
 H                  1.57530871   -0.38425804    0.04694275
 H                  2.23786599    2.32159286   -0.05451565
 C                 -0.02432894    4.11150172    0.04010061
 O                  1.01301514    4.81177458    0.17088953
 H                 -0.98590078    4.57994162    0.01105461

 1 2 2.0 5 1.0 6 1.0
 2 3 1.0 7 1.0
 3 4 2.0 8 1.0
 4 5 1.0 9 1.0
 5
 6
 7
 8
 9 10 2.0 11 1.0
 10
 11

