%Chk=e7_02_o
# opt freq 6-311+g(2d,p) geom=connectivity apfd Int=(UltraFine,Acc2E=12)

Ethylene oxide (oxirane)

0 1
 C                 -0.33934370   -0.42792781    0.23859875
 C                  0.62594287    0.61885384    0.06413342
 H                 -1.17858153   -0.52027589   -0.41870763
 H                 -0.00959781   -1.40540571    0.52268432
 H                  0.44223670    1.38906292   -0.65554013
 H                  1.67547294    0.41274188    0.09420793
 O                 -0.24793964    0.65073445    1.31830267

 1 2 1.0 3 1.0 4 1.0 7 1.0
 2 5 1.0 6 1.0 7 1.0
 3
 4
 5
 6
 7

--link1--
%Chk=e7_02_o
# apfd aug-cc-pVTZ nmr=mixed Int=(UltraFine,Acc2E=12) guess=read geom=allcheck

