%Chk=e7_04_4
# APFD/6-311+G(2d,p) Opt Freq=VCD Int=(UltraFine,Acc2E=12)
 
Desflurane conformer 4: Polavarapu conformer B
 
  0   1 
C     1.323700    0.508900    0.768300 
O     0.827600    0.038400   -0.466700 
F     0.508500    0.167800    1.825300 
H     1.454400    1.613600    0.713400 
F     2.562100   -0.066300    0.964600 
C    -0.510100    0.436100   -0.715100 
H    -0.584200    0.380000   -1.825300 
C    -1.557200   -0.542900   -0.119900 
F    -2.562100   -0.792800   -1.039600 
F    -0.970500   -1.755500    0.198400 
F    -2.138600   -0.033600    1.027000 
F    -0.716700    1.755500   -0.346800 
 
