%Chk=e7_04_5
# APFD/6-311+G(2d,p) Opt Freq=VCD Int=(UltraFine,Acc2E=12)
 
Desflurane conformer 5: Polavarapu conformer C
 
  0   1 
C     1.481450   -1.122300    0.036750 
O     1.078650    0.190500    0.354150 
F     0.435750   -2.015000    0.126950 
H     2.259550   -1.396700    0.783450 
F     2.030550   -1.190200   -1.226650 
C    -0.000250    0.644700   -0.448150 
H     0.092050    0.246800   -1.485450 
C    -1.391950    0.301300    0.143750 
F    -2.259550    1.374200    0.033150 
F    -1.962650   -0.765900   -0.528150 
F    -1.294750   -0.024800    1.485450 
F     0.179350    2.015000   -0.565050 
 
