%Chk=e7_04_scan
# opt=modredundant APFD 6-311+G(2d,p) geom=connectivity Int=(Ultrafine,Acc2E=12)

desflurane systematic conformer search (explore both C-O bonds)

0 1
 C                  0.99909130   -0.97837502   -1.00695517
 C                  0.10028551   -0.33625987    0.06609482
 H                 -0.54159923   -1.08197922    0.48655486
 O                 -0.69239434    0.69380383   -0.53016638
 C                 -2.07869354    0.38389739   -0.36575063
 H                 -2.17710332   -0.54144160    0.16241911
 F                  1.80894588   -0.03751417   -1.53744213
 F                  0.22881676   -1.50969127   -1.98003285
 F                  1.74742543   -1.95081278   -0.44405124
 F                  0.87056005    0.19505638    1.03917251
 F                 -2.66216479    0.27425006   -1.57820218
 F                 -2.67980441    1.36845946    0.33553621

 1 2 1.0 7 1.0 8 1.0 9 1.0
 2 3 1.0 4 1.0 10 1.0
 3
 4 5 1.0
 5 6 1.0 11 1.0 12 1.0
 6
 7
 8
 9
 10
 11
 12

D 3 2 4 5 S 5 60.000000
D 6 5 4 2 S 5 60.000000

