%Chk=e7_04_6
# APFD/6-311+G(2d,p) Opt Freq=VCD Int=(UltraFine,Acc2E=12)
 
Desflurane conformer 6: Polavarapu conformer A
 
  0   1 
C     1.533850    0.644100    0.912850 
O     0.987850   -0.272400   -0.011350 
F     0.588650    1.133200    1.788850 
H     2.024350    1.474200    0.354650 
F     2.500450   -0.023800    1.636250 
C    -0.094950    0.270700   -0.742750 
H     0.094750   -0.063300   -1.788850 
C    -1.450650   -0.351400   -0.326650 
F    -2.500450    0.360100   -0.881050 
F    -1.540950   -1.653600   -0.789450 
F    -1.610650   -0.363600    1.045750 
F    -0.122650    1.653600   -0.811850 


