%Chk=x7_06_ax
# APFD 6-311+G(2d,p) Freq=VCD Opt Int=(UltraFine,Acc2E=12)

R-3-methylcyclohexanone methyl axial

     0     1
  C                                                -0.693393564902      0.588797295420     -1.001594015993
  C                                                -0.479160096811     -0.888333024332     -0.620545392950
  C                                                -0.433284275894     -1.037448949698      0.918213858408
  C                                                 0.549612119082     -0.080495750460      1.570154529474
  C                                                 0.418729912294      1.371576562904      1.145885397409
  C                                                 0.356573032753      1.520312733360     -0.385888520730
  H                                                 0.134535887435      2.559299200585     -0.642746857337
  H                                                 1.342856807551      1.306055479520     -0.807897074951
  H                                                -0.515650535695      1.751620604055      1.579296303808
  H                                                 1.241449263344      1.938681359199      1.582381544469
  O                                                 1.375270604804     -0.447851757728      2.377492537121
  H                                                -0.180974936947     -2.055112842057      1.219458334103
  H                                                -1.424804285010     -0.804453686200      1.326772127679
  H                                                -1.345500961437     -1.454389792808     -0.978395236982
  C                                                 0.767649244799     -1.494679001098     -1.277344146069
  H                                                 1.689387998455     -1.017645929538     -0.935364965521
  H                                                 0.723655228060     -1.394187334735     -2.364866721488
  H                                                 0.850079797884     -2.558608468316     -1.043119164270
  H                                                -1.688609901513      0.900670842845     -0.663488395779
  H                                                -0.690321338253      0.691292459084     -2.090804140402

