%Chk=x7_01_ch3
# opt freq 6-311+g(2d,p) geom=connectivity apfd Int=(UltraFine,Acc2E=12)

CHCCH3

0 1
 C                  0.00000205    0.00000030    0.60025694
 C                  0.00000460    0.00000141   -0.60094306
 H                  0.00000272    0.00000449   -1.67094306
 C                 -0.00000170   -0.00000128    2.14025694
 H                  0.74341688   -0.68192276    2.49692472
 H                  0.21884871    0.98477905    2.49692514
 H                 -0.96227330   -0.30286122    2.49692095

 1 2 3.0 4 1.0
 2 3 1.0
 3
 4 5 1.0 6 1.0 7 1.0
 5
 6
 7

--Link1--
%Chk=x7_01_ch3
# APFD/6-311+G(2d,p) NMR Guess=Read Geom=Allcheck Int=(UltraFine,Acc2E=12)

