%Chk=x7_05_1
# opt freq=vcd 6-311+g(2d,p) geom=connectivity apfd Int=(UltraFine,Acc2E=12)

(1R,6R)-3-oxabicyclo[4.3.1]decane-2,8-dione (Stephens05b 2a)

0 1
 C                  0.91652800    1.19274100    0.94253000
 C                  2.06909500    0.29862900    0.42721700
 C                  1.60267100   -0.91559800   -0.36572900
 C                  0.41757800   -1.68105200    0.21364900
 C                 -0.69614500   -0.82335700    0.87888700
 H                 -1.23316900   -1.48643800    1.56180200
 H                  2.78453600    0.85613500   -0.18598700
 H                  1.35179700    1.90756500    1.65318700
 H                  0.38951700   -0.10165700    2.58554200
 C                 -0.10511200    0.33582300    1.70753500
 H                 -0.91620000    0.96606500    2.09277200
 H                  0.01885000   -2.35017900   -0.55447500
 H                  0.84001500   -2.32507300    1.00035800
 H                  2.62198300   -0.08804600    1.29739400
 O                  2.17394100   -1.29139500   -1.37208400
 C                  0.26836900    2.02781800   -0.17702900
 H                  1.04373900    2.64270000   -0.65471300
 H                 -0.45775800    2.72503000    0.26102300
 C                 -0.43226500    1.25143500   -1.28941600
 H                 -0.71405200    1.94380500   -2.08656200
 H                  0.21462600    0.49346900   -1.74196400
 C                 -1.82465600   -0.40356700   -0.07831900
 O                 -1.68964700    0.65710300   -0.91645700
 O                 -2.88932800   -0.97578300   -0.05949900

 1 2 1.0 8 1.0 10 1.0 16 1.0
 2 3 1.0 7 1.0 14 1.0
 3 4 1.0 15 2.0
 4 5 1.0 12 1.0 13 1.0
 5 6 1.0 10 1.0 22 1.0
 6
 7
 8
 9 10 1.0
 10 11 1.0
 11
 12
 13
 14
 15
 16 17 1.0 18 1.0 19 1.0
 17
 18
 19 20 1.0 21 1.0 23 1.0
 20
 21
 22 23 1.0 24 2.0
 23
 24

