%Chk=x7_01_no2
# opt freq 6-311+g(2d,p) geom=connectivity apfd int=(ultrafine,acc2e=12)

CHCNO2 nitroacetylene

0 1
 C                  0.00000350   -0.00000222    0.58409252
 C                  0.00000716   -0.00001539   -0.61710748
 H                  0.00001185   -0.00002692   -1.68710748
 N                 -0.00000362    0.00001131    2.05409252
 O                 -1.06264112   -0.13979804    2.67288866
 O                  1.06262788    0.13983205    2.67289638

 1 2 3.0 4 1.0
 2 3 1.0
 3
 4 5 1.5 6 1.5
 5
 6

--Link1--
%Chk=x7_01_no2
# APFD/6-311+G(2d,p) NMR Guess=Read Geom=Allcheck Int=(UltraFine,Acc2E=12)



