%Chk=x7_06_eq
# APFD Opt 6-311+G(2d,p) Freq=VCD Int=(UltraFine,Acc2E=12)

R-3-methylcyclohexanone methyl equatorial

     0     1
  C                                                -0.432496555512      0.823042183633      0.521301012000
  C                                                -0.422465975681     -0.704002723930      0.675718150786
  C                                                 0.114270430835     -1.370604449391     -0.608961097816
  C                                                 1.443608399925     -0.790372130916     -1.056664787924
  C                                                 1.501558270644      0.725119420639     -1.126446528161
  C                                                 0.948784892669      1.373598789647      0.155586344151
  H                                                 1.644835938847      1.185078743459      0.980213296750
  H                                                 0.906400321146      2.458358291950      0.028148528819
  H                                                 2.529528218195      1.025999070634     -1.330192321418
  H                                                 0.886176488909      1.037029183737     -1.980428226691
  O                                                 2.394160931030     -1.489305944382     -1.332803379890
  H                                                -0.608930351154     -1.203660581904     -1.419096718966
  H                                                 0.230481655697     -2.448525745894     -0.486428709408
  H                                                 0.273179323495     -0.950812669426      1.488401170411
  C                                                -1.798621946336     -1.257030181326      1.049155742812
  H                                                -2.535191521746     -1.029528825041      0.272438538796
  H                                                -2.156840782273     -0.823227531253      1.986204465410
  H                                                -1.770091569383     -2.342434671086      1.172873137634
  H                                                -0.782721310690      1.283847509734      1.449867644104
  H                                                -1.156824858617      1.100432261115     -0.255486261401

