%Chk=x7_02_nh
# opt freq 6-311+g(2d,p) geom=connectivity apfd Int=(UltraFine,Acc2E=12)

Substituted cyclopropane: NH

0 1
 C                 -0.34206153   -0.45461179    0.25248899
 C                  0.64530497    0.65237094    0.05961144
 H                 -1.17081247   -0.52197054   -0.42096087
 H                 -0.06044856   -1.44406370    0.54673217
 H                  0.43798517    1.41581391   -0.66085599
 H                  1.69325995    0.43860350    0.09113665
 N                 -0.23503770    0.63164135    1.29552695
 H                  0.20289375    0.47662994    2.18107058

 1 2 1.0 3 1.0 4 1.0 7 1.0
 2 5 1.0 6 1.0 7 1.0
 3
 4
 5
 6
 7 8 1.0
 8

--link1--
%Chk=x7_02_nh
# apfd aug-cc-pVTZ nmr=mixed Int=(UltraFine,Acc2E=12) guess=read geom=allcheck

