%Chk=x7_11_camp_solv
# opt freq=vcd 6-311+g(2d,p) scrf=(solvent=chloroform) geom=connectivity
apfd int=(ultrafine,acc2e=12)

(1S,4S) camphor VCD

0 1
 C                  0.90843900   -0.25408100    0.41824400
 C                 -0.28505000   -0.49757600   -0.54797100
 C                  0.59544800    1.25499900    0.60062600
 C                 -0.06671000    0.60155600   -1.62317200
 C                  0.58277100    1.77555500   -0.84613700
 C                 -0.86293500    1.24114300    1.07137600
 C                 -1.43609800    0.06544700    0.27930600
 C                  0.81268200   -1.07098200    1.70708700
 C                  2.27657500   -0.52540600   -0.19934400
 C                 -0.52671600   -1.88252000   -1.08659300
 O                 -2.57415900   -0.32645400    0.29398700
 H                  1.27847900    1.78648300    1.26718700
 H                 -1.00702300    0.87538900   -2.10791800
 H                  0.58931600    0.21448400   -2.40719500
 H                  0.01267700    2.70333300   -0.93385600
 H                  1.59119000    1.98748100   -1.20754800
 H                 -1.41387600    2.15909800    0.85095700
 H                 -0.97582600    1.04671300    2.14104300
 H                  1.04319900   -2.12122200    1.50979800
 H                  1.53608500   -0.70987200    2.44401800
 H                 -0.17657600   -1.04374700    2.16870500
 H                  2.40723200   -1.59449900   -0.38804300
 H                  3.06671800   -0.21686200    0.49216200
 H                  2.44201400   -0.00251000   -1.14159800
 H                 -1.43538700   -1.90220500   -1.69285700
 H                  0.30862000   -2.21451000   -1.70923700
 H                 -0.66400100   -2.60473200   -0.27804900

 1 2 1.0 3 1.0 8 1.0 9 1.0
 2 4 1.0 7 1.0 10 1.0
 3 5 1.0 6 1.0 12 1.0
 4 5 1.0 13 1.0 14 1.0
 5 15 1.0 16 1.0
 6 7 1.0 17 1.0 18 1.0
 7 11 2.0
 8 19 1.0 20 1.0 21 1.0
 9 22 1.0 23 1.0 24 1.0
 10 25 1.0 26 1.0 27 1.0
 11
 12
 13
 14
 15
 16
 17
 18
 19
 20
 21
 22
 23
 24
 25
 26
 27

