%Chk=x7_10_scan
# opt=modredundant 6-311+g(2d,p) geom=connectivity apfd
int=(ultrafine,acc2e=12)

(R)-lactamide scan

0 1
 C                 -2.00486336    0.43026115   -0.49529707
 C                 -1.39254429   -0.47779840   -1.57792961
 C                 -2.18001622   -0.37115725    0.80802561
 H                 -2.82957701   -1.20276144    0.63081036
 H                 -1.22671006   -0.72730723    1.13857753
 H                 -2.60545869    0.25976724    1.56024432
 H                  0.47756172   -0.50273283   -0.77606815
 H                  0.38306997   -1.21858261   -2.24075142
 N                 -0.07624278   -1.09523482   -1.36108266
 O                 -2.01901787   -0.69125361   -2.64822783
 O                 -1.24093130    1.40828985   -0.28687868
 H                 -2.95816952    0.78641113   -0.82584899
 H                 -0.42048047    1.48983304   -0.77862164

 1 2 1.0 3 1.0 11 2.0 12 1.0
 2 9 1.0 10 2.0
 3 4 1.0 5 1.0 6 1.0
 4
 5
 6
 7 9 1.0
 8 9 1.0
 9
 10
 11 13 1.0
 12
 13

D 10 2 1 12 S 23 15.000000
D 2 1 11 13 S 5 60.000000

