%Chk=x7_12_cn
# opt freq 6-311+g(2d,p) geom=connectivity apfd int=(ultrafine,acc2e=12)

Substituted oxirane: CN

0 1
 C                 -0.45695222    0.01825299    0.73323525
 C                 -0.52652546    0.01485304   -0.69163577
 O                  0.72528520    0.61713890   -0.06109490
 H                 -0.23856899   -0.89712852    1.24243606
 H                 -1.16297561    0.54809777    1.33796286
 H                 -1.13511318    0.80022917   -1.08875708
 C                 -0.81338613   -1.13313882   -1.67724504
 N                 -1.02696704   -1.98787055   -2.41107638

 1 2 1.0 3 1.0 4 1.0 5 1.0
 2 3 1.0 6 1.0 7 1.0
 3
 4
 5
 6
 7 8 3.0
 8

--Link1--
%Chk=x7_12_cn
# APFD 6-311++g(2d,2p) Polar=OptRot Int=(UltraFine,Acc2E=12) CPHF=RdFreq Geom=Check Guess=Read

Substituted oxirane: CN

0 1

633nm 589nm 578nm 546nm 436nm 365nm 355nm



