%Chk=x7_10_2a
# opt freq 6-311+g(2d,p) scrf=(solvent=water) geom=connectivity apfd int=(ultrafine,acc2e=12)

(R)-lactamide Hopmann conformation 2

0 1
 C                  0.67034000    0.06517300   -0.40447500
 C                 -0.82477900    0.14255600   -0.10028900
 C                  1.41433400    1.04378800    0.49107500
 H                  0.99131500    2.04224700    0.37405600
 H                  1.32519800    0.74542600    1.53903600
 H                  2.47532700    1.08504400    0.22517600
 H                 -0.80676800   -1.81276000    0.50292400
 H                 -2.35509900   -1.00180100    0.60247800
 N                 -1.36714400   -0.98152500    0.41361000
 O                 -1.43541200    1.17478100   -0.30394500
 O                  1.12636200   -1.27523000   -0.25270400
 H                  0.77207000    0.37269200   -1.45335400
 H                  2.08099700   -1.26568500   -0.15025500

 1 2 1.0 3 1.0 11 1.0 12 1.0
 2 9 1.5 10 2.0
 3 4 1.0 5 1.0 6 1.0
 4
 5
 6
 7 9 1.0
 8 9 1.0
 9
 10
 11 13 1.0
 12
 13

--link1--
%Chk=x7_10_2a
# apfd spAug-cc-pvTZ Polar=ROA Geom=Check Guess=Read Int=(UltraFine,Acc2E=12) SCRF(Solvent=Water)

(R)-lactamide Hopmann conformation 2. ROA in water (implicit only)

0 1

532nm

