%Chk=x7_15
# opt freq=(vcd,vibrot) 6-311+g(2d,p) apfd Int=(UltraFine,Acc2E=12) output=pickett

CF+

1 1
C 0. 0. 0.
F 1.154 0. 0.



