%Chk=x7_10_4g
# opt freq 6-311+g(2d,p) geom=connectivity apfd Int=(UltraFine,Acc2E=12)

(R)-lactamide Hopmann conformation 4

0 1
 C                 -2.01936497    0.43262690   -0.50054836
 C                 -1.63468178   -1.04245417   -0.71907679
 C                 -1.02096676    1.33910072   -1.24425948
 H                 -0.03444110    1.16810119   -0.86686539
 H                 -1.04652026    1.11502897   -2.29022261
 H                 -1.28824664    2.36399471   -1.09242480
 H                  0.34666783   -0.78613761   -0.33248196
 H                 -0.02642412   -2.27883897   -0.87957583
 N                 -0.31857264   -1.53114217   -0.28325482
 O                 -2.44700170   -1.82946260   -1.27073305
 O                 -3.17959289    0.63373513   -0.94439203
 H                 -1.99381146    0.65669865    0.54541477
 H                 -3.67288139   -0.08722287   -1.34249504

 1 2 1.0 3 1.0 11 2.0 12 1.0
 2 9 1.0 10 2.0
 3 4 1.0 5 1.0 6 1.0
 4
 5
 6
 7 9 1.0
 8 9 1.0
 9
 10
 11 13 1.0
 12
 13

--Link1--
%Chk=x7_10_4g
# apfd spAug-cc-pvTZ Polar=ROA Geom=Check Guess=Read Int=(UltraFine,Acc2E=12)

(R)-lactamide Hopmann conformation 4. ROA

0 1

532nm

