%Chk=x7_10_4a
# opt freq 6-311+g(2d,p) scrf=(solvent=water) geom=connectivity apfd Int=(UltraFine,Acc2E=12)

(R)-lactamide Hopmann conformation 4

0 1
 C                  0.68214800    0.11225200   -0.41010000
 C                 -0.77136800   -0.15328300   -0.02070900
 C                  1.29455300    1.20766900    0.46181100
 H                  0.80495800    2.17396300    0.31206200
 H                  1.21730400    0.93624900    1.51712800
 H                  2.35127300    1.31559600    0.21117100
 H                 -1.38280600    1.70604800   -0.68028800
 H                 -2.62009200    0.70315700    0.00460000
 N                 -1.65297800    0.84716300   -0.23492700
 O                 -1.08324200   -1.22451700    0.47007900
 O                  1.39517900   -1.08588100   -0.28993800
 H                  0.70087400    0.43065700   -1.46339500
 H                  0.77184600   -1.71245300    0.11606600

 1 2 1.0 3 1.0 11 1.0 12 1.0
 2 9 1.5 10 2.0
 3 4 1.0 5 1.0 6 1.0
 4
 5
 6
 7 9 1.0
 8 9 1.0
 9
 10
 11 13 1.0
 12
 13

--link1--
%Chk=x7_10_4a
# apfd spAug-cc-pvTZ Polar=ROA Geom=Check Guess=Read Int=(UltraFine,Acc2E=12) SCRF(Solvent=Water)

(R)-lactamide Hopmann conformation 4. ROA in water (implicit only)

0 1

532nm

