%Chk=x7_10_3ax
# scrf=(solvent=water) geom=connectivity apfd 6-311+G(2d,p) Int=(UltraFine,Acc2E=12) Opt Freq

(R)-lactamide Hopmann conformation 3 + 4 H2O

0 1
 C                  0.89037051   -0.52661611   -0.14673769
 C                 -0.69257304   -0.45565823   -0.08031403
 C                  1.28437346   -1.29871417   -1.42122874
 H                  0.83769091   -2.27340964   -1.40301950
 H                  0.94122404   -0.76339651   -2.28377032
 H                  2.34806872   -1.39539169   -1.46176440
 H                 -1.14203993    1.61423995    0.22622997
 H                 -2.44002194    0.53424545    0.39050935
 N                 -1.48358130    0.67183484    0.21733707
 O                 -1.26345074   -1.59269879   -0.31509978
 O                  1.53462024    0.75433757   -0.13175090
 H                  1.23425880   -1.04839216    0.72357044
 H                  1.28332936    1.36928123   -0.78927198
 O                 -3.58014051   -1.91655869    0.27141237
 H                 -4.11925768   -2.27616452   -0.43819441
 H                 -2.65167557   -1.84984764    0.02331872
 O                 -3.84141459    0.33239511    0.64419476
 H                 -3.88880730   -0.57926722    0.53584100
 H                 -4.10555500    0.64080064    1.51186132
 O                 -0.58107141    2.93974760    0.20929601
 H                 -0.07057003    3.18134662    0.98677231
 H                 -1.24712206    3.63055325    0.16331484
 O                  0.83197766    2.46892324   -1.54996573
 H                  1.52893209    3.08344125   -1.78474126
 H                  0.22006304    2.78543912   -0.94100339

 1 2 1.0 3 1.0 11 1.0 12 1.0
 2 9 1.5 10 2.0
 3 4 1.0 5 1.0 6 1.0
 4
 5
 6
 7 9 1.0 20 0.5
 8 9 1.0 17 0.5
 9
 10 16 0.5
 11 13 1.0
 12
 13 23 0.5
 14 15 1.0 16 1.0 18 0.5
 15
 16
 17 18 1.0 19 1.0
 18
 19
 20 21 1.0 22 1.0 25 0.5
 21
 22
 23 24 1.0 25 1.0
 24
 25

--link1--
%Chk=x7_10_3ax
# apfd spAug-cc-pvTZ Polar=ROA Geom=Check Guess=Read Int=(UltraFine,Acc2E=12) SCRF(Solvent=Water)

(R)-lactamide Hopmann conformation 3 + 4 H2O. ROA

0 1

532nm

