%Chk=x7_10_1g
# opt freq 6-311+g(2d,p) geom=connectivity apfd Int=(UltraFine,Acc2E=12)

(R)-lactamide Hopmann conformation 1

0 1
 C                 -2.00491139    0.43083290   -0.49568971
 C                 -1.62305846   -1.04065303   -0.74169275
 C                 -3.30846400    0.49310699    0.32191199
 H                 -4.09275810    0.00685427   -0.21969770
 H                 -3.16457162    0.00023200    1.26067140
 H                 -3.57377740    1.51550306    0.49283618
 H                  0.33497388   -0.82121724   -0.23291253
 H                 -0.02072536   -2.29023899   -0.85107094
 N                 -0.33947076   -1.55939814   -0.24752059
 O                 -2.40985099   -1.79899321   -1.36575063
 O                 -1.08252289    1.00270245    0.14128378
 H                 -2.14880377    0.92370789   -1.43444912
 H                 -0.31739793    1.34561466   -0.32625769

 1 2 1.0 3 1.0 11 2.0 12 1.0
 2 9 1.0 10 2.0
 3 4 1.0 5 1.0 6 1.0
 4
 5
 6
 7 9 1.0
 8 9 1.0
 9
 10
 11 13 1.0
 12
 13

--Link1--
%Chk=x7_10_1g
# apfd spAug-cc-pvTZ Polar=ROA Geom=Check Guess=Read Int=(UltraFine,Acc2E=12)

(R)-lactamide Hopmann conformation 1. ROA

0 1

532nm

