%Chk=e3_06_n2
# opt freq APFD/6-311+g(2d,p) geom=connectivity Int=(UltraFine,Acc2E=12)

N2 Opt Freq

0 1
 N                 -1.89189200    0.81081080    0.00000000
 N                 -2.98389200    0.81081080    0.00000000

 1 2 3.0
 2

