%Chk=e3_05_trans
# opt freq APFD/6-311+g(2d,p) geom=connectivity Int=(UltraFine,Acc2E=12)

trans 1-fluoropropene HCCC=0 Opt Freq

0 1
 C                  0.00000000    0.00000000    0.00000000
 H                  0.00000000    0.00000000    1.09100000
 C                  1.43307169    0.00000000   -0.50666115
 H                 -0.51539360   -0.89125038   -0.36401400
 H                 -0.51539360    0.89125038   -0.36401400
 H                  1.63060625   -0.00000000   -1.56945986
 C                  2.45172704    0.00000000    0.36393708
 H                  2.25456677    0.00000000    1.42782233
 F                  3.70581945   -0.00000000   -0.07895369

 1 2 1.0 3 1.0 4 1.0 5 1.0
 2
 3 6 1.0 7 2.0
 4
 5
 6
 7 8 1.0 9 1.0
 8
 9

