%Chk=e3_06_react
# opt freq APFD/6-311+g(2d,p) geom=connectivity Int=(UltraFine,Acc2E=12)

(CH3)2CH-N=N=N Reactant Opt Freq

0 1
 C                 -1.83177831   -0.66472886    2.11461257
 C                 -0.34820496   -0.85131460    1.74610765
 H                 -0.27347155   -1.22969857    0.74803927
 H                 -2.28349687    0.02809460    1.43575618
 H                 -2.33612081   -1.60629555    2.05143972
 H                 -1.90651173   -0.28634489    3.11268095
 C                  0.30193203   -1.84846238    2.72315330
 H                  1.33272650   -1.97810312    2.46711416
 H                  0.22719861   -1.47007841    3.72122168
 H                 -0.20241047   -2.79002907    2.65998044
 N                  0.34467679    0.44223964    1.83289652
 N                  0.37818431    1.05254766    2.90258123
 N                  0.41169183    1.66285567    3.97226594

 1 2 1.0 4 1.0 5 1.0 6 1.0
 2 7 1.0 3 1.0 11 1.0
 3
 4
 5
 6
 7 8 1.0 9 1.0 10 1.0
 8
 9
 10
 11 12 2.0
 12 13 2.0
 13

