%Chk=e3_01_cs
# B3LYP/6-31G(d) geom=connectivity opt=calcfc freq

decamethylzincocene (Cs): eta1,eta5 

0 1
 Zn                 0.01307592    0.59210720    0.00000000
 C                 -0.55843307    2.69139693    0.00000000
 C                  1.43010688    1.85690073    0.70070421
 C                  1.43010688    1.85690073   -0.70070421
 C                  0.20107855    2.37254397   -1.13376320
 C                  0.20107855    2.37254397    1.13376320
 C                  0.24098809   -2.94321796    0.70922840
 C                 -0.62861555   -2.00569962    1.17535699
 C                 -1.04871346   -1.12631040    0.00000000
 C                 -0.62861555   -2.00569962   -1.17535699
 C                  0.24098809   -2.94321796   -0.70922840
 C                  1.08331822   -3.88292451   -1.59183221
 H                  1.99263980   -4.12893476   -1.08438126
 H                  0.53101205   -4.77807960   -1.78816752
 H                  1.31155824   -3.39467694   -2.51618257
 C                  1.08331822   -3.88292451    1.59183221
 H                  0.53101205   -4.77807960    1.78816752
 H                  1.99263980   -4.12893476    1.08438126
 H                  1.31155824   -3.39467694    2.51618257
 C                 -1.11178350   -1.86369975    2.63067082
 H                 -1.11494829   -2.82486913    3.10081405
 H                 -0.45388313   -1.20862823    3.16259605
 H                 -2.10223132   -1.45894010    2.63976022
 C                 -1.11178350   -1.86369975   -2.63067082
 H                 -0.45388313   -1.20862823   -3.16259605
 H                 -1.11494829   -2.82486913   -3.10081405
 H                 -2.10223132   -1.45894010   -2.63976022
 C                 -2.54532158   -0.76338167    0.00000000
 H                 -2.77306776   -0.18912516   -0.87365334
 H                 -3.12967402   -1.65971389    0.00000000
 H                 -2.77306776   -0.18912516    0.87365334
 C                 -1.97838260    3.28750566    0.00000000
 H                 -2.69773823    2.49541835    0.00000000
 H                 -2.11198968    3.89065944    0.87365039
 H                 -2.11198968    3.89065944   -0.87365039
 C                 -0.23781559    2.55649327   -2.59839062
 H                 -1.30079326    2.45548921   -2.66755575
 H                  0.05085389    3.52931928   -2.93774554
 H                  0.23153558    1.81244843   -3.20750012
 C                 -0.23781559    2.55649327    2.59839062
 H                  0.05085389    3.52931928    2.93774554
 H                 -1.30079326    2.45548921    2.66755575
 H                  0.23153558    1.81244843    3.20750012
 C                  2.57897150    1.37488413   -1.60589836
 H                  2.17637721    0.99687535   -2.52237499
 H                  3.23538623    2.19347722   -1.81547280
 H                  3.12338507    0.59939144   -1.10878093
 C                  2.57897150    1.37488413    1.60589836
 H                  3.12338507    0.59939144    1.10878093
 H                  3.23538623    2.19347722    1.81547280
 H                  2.17637721    0.99687535    2.52237499

 1 9 1.0 3 0.5 4 0.5 5 0.5 2 0.5 6 0.5
 2 5 1.5 6 1.5 32 1.0
 3 4 1.5 6 1.5 48 1.0
 4 5 1.5 44 1.0
 5 36 1.0
 6 40 1.0
 7 8 2.0 11 1.5 16 1.0
 8 9 1.0 20 1.0
 9 10 1.0 28 1.0
 10 11 2.0 24 1.0
 11 12 1.0
 12 13 1.0 14 1.0 15 1.0
 13
 14
 15
 16 17 1.0 18 1.0 19 1.0
 17
 18
 19
 20 21 1.0 22 1.0 23 1.0
 21
 22
 23
 24 25 1.0 26 1.0 27 1.0
 25
 26
 27
 28 29 1.0 30 1.0 31 1.0
 29
 30
 31
 32 33 1.0 34 1.0 35 1.0
 33
 34
 35
 36 37 1.0 38 1.0 39 1.0
 37
 38
 39
 40 41 1.0 42 1.0 43 1.0
 41
 42
 43
 44 45 1.0 46 1.0 47 1.0
 45
 46
 47
 48 49 1.0 50 1.0 51 1.0
 49
 50
 51

