%Chk=e3_05_trans180
# opt freq APFD/6-311+g(2d,p) geom=connectivity Int=(UltraFine,Acc2E=12)

trans 1-fluoropropene HCCC=180 Opt Freq

0 1
 C                  0.00000000    0.00000000    0.00000000
 H                  0.00000000    0.00000000    1.09100000
 C                  1.43307169    0.00000000   -0.50666115
 H                 -0.51539360   -0.89125038   -0.36401400
 H                 -0.51539360    0.89125038   -0.36401400
 H                  2.25471510    0.00000000    0.19580815
 C                  1.67816408   -0.00000000   -1.82405620
 H                  0.85612886   -0.00000000   -2.52760585
 F                  2.93194698   -0.00000000   -2.26782238

 1 2 1.0 3 1.0 4 1.0 5 1.0
 2
 3 6 1.0 7 2.0
 4
 5
 6
 7 8 1.0 9 1.0
 8
 9

