%Chk=e3_02_1
#p OPT(MaxCycles=50) APFd 6-311+G(2d,p) Geom=Connectivity 

Co(acac)3 - built in GV with C1 symmetry

0 1
 Co                -0.01911624   -0.06126669   -0.13081478
 O                  1.25675481    1.23777740   -0.11955790
 O                  1.15415207   -1.10087627   -1.05825751
 O                  0.76150568   -0.78029049    1.35583820
 O                 -1.12814231    1.02331068    0.83349685
 O                 -0.89356608    0.54217737   -1.60943731
 O                 -1.33447257   -1.31705268   -0.02657246
 C                  1.22904662    2.29971423   -0.79431637
 C                  2.31660471    3.35742751   -0.52962787
 H                  2.51078967    3.90232054   -1.42978551
 C                 -0.73893371    1.67057297   -2.14389724
 C                  0.26616403    2.57277996   -1.77403144
 H                  0.30454136    3.51939762   -2.27136654
 C                 -1.70507850    2.08009163   -3.27104351
 H                 -2.54988669    2.58472379   -2.85087032
 H                  3.21386162    2.87299921   -0.20534519
 H                  1.98080385    4.03186745    0.23015404
 H                 -2.03494302    1.20627054   -3.79308386
 H                 -1.20168822    2.73381624   -3.95232344
 C                  0.70029507   -0.34191947    2.53316649
 C                  1.59574465   -0.99648657    3.60148852
 H                  1.11550002   -0.93522546    4.55569613
 C                 -1.02842837    1.32131321    2.05105963
 C                 -0.13616535    0.70198380    2.92392989
 H                 -0.09695600    1.03712425    3.93933301
 C                 -1.94540981    2.42579239    2.60861746
 H                 -2.86360302    2.43804873    2.05937156
 H                  2.53499506   -0.48549571    3.64145127
 H                  1.75890190   -2.02353515    3.34959384
 H                 -1.45989076    3.37448675    2.51296008
 H                 -2.14985913    2.23223959    3.64091482
 C                 -1.20894438   -2.54028996   -0.29434489
 C                 -2.39561389   -3.47510189    0.00489102
 H                 -2.02946028   -4.45381763    0.23499331
 C                  1.06851219   -2.34561210   -1.21855993
 C                 -0.05207952   -3.09882879   -0.85034996
 H                 -0.02560963   -4.15679754   -1.00815191
 C                  2.25984951   -3.08020160   -1.86097230
 H                  2.93752592   -3.39768228   -1.09621042
 H                 -3.03467399   -3.52566901   -0.85181500
 H                 -2.94721156   -3.09533122    0.83940541
 H                  2.76550181   -2.41948509   -2.53377943
 H                  1.90426816   -3.93383405   -2.39927849

 1 2 1.0 3 1.0 4 1.0 5 1.0 6 1.0 7 1.0
 2 8 2.0
 3 35 2.0
 4 20 2.0
 5 23 2.0
 6 11 2.0
 7 32 2.0
 8 9 1.0 12 1.5
 9 10 1.0 16 1.0 17 1.0
 10
 11 12 1.5 14 1.0
 12 13 1.0
 13
 14 15 1.0 18 1.0 19 1.0
 15
 16
 17
 18
 19
 20 21 1.0 24 1.5
 21 22 1.0 28 1.0 29 1.0
 22
 23 24 1.5 26 1.0
 24 25 1.0
 25
 26 27 1.0 30 1.0 31 1.0
 27
 28
 29
 30
 31
 32 33 1.0 36 1.5
 33 34 1.0 40 1.0 41 1.0
 34
 35 36 1.5 38 1.0
 36 37 1.0
 37
 38 39 1.0 42 1.0 43 1.0
 39
 40
 41
 42
 43


