%chk=e3_04_r.chk
# opt freq apfd/6-311+g(2d,p) geom=connectivity int=(ultrafine,acc2e=12)

Azirine

0 1
 C                  0.30638900   -2.00692500    0.08530900
 C                  1.56959700   -1.66106500   -0.53364300
 H                 -0.62548900   -1.88459900   -0.45669400
 H                  0.27683500   -2.65980200    0.95133200
 H                  2.40087100   -1.88437700   -1.19049800
 N                  1.19146100   -0.73948400    0.21666200

 1 2 1.0 3 1.0 4 1.0 6 1.0
 2 5 1.0 6 2.0
 3
 4
 5
 6

