%Chk=e3_03
# opt=qst2 freq apfd/6-311+g(2d,p) geom=connectivity int=(ultrafine,acc2e=12)

reactant SiH2 +H2 -> SiH4 TS

0 1
 Si                 0.00000000    0.00000000    0.00000000
 H                  1.21234503    0.00000000    0.84889313
 H                 -1.21234503   -0.00000000    0.84889313
 H                  0.00000000   -1.96961551    0.34729636
 H                  0.00000000   -1.95629520   -0.41582338

 1 2 1.0 3 1.0
 2
 3
 4 5 1.0
 5

product SiH2 +H2 -> SiH4 TS

0 1
 Si                 0.00000000    0.00000000    0.00000000
 H                  1.21234503    0.00000000    0.84889313
 H                 -1.21234503   -0.00000000    0.84889313
 H                  0.00000000   -1.20937445   -0.85311983
 H                  0.00000000    1.20788363   -0.85522928

 1 2 1.0 3 1.0 4 1.0 5 1.0
 2
 3
 4
 5

