%Chk=x3_09_d5d_0
# opt 6-31g(d) geom=connectivity b3lyp

zincocene (D5d): eta5,eta5

0 1
 C                  0.00000000    1.21774941   -2.67557189
 C                 -1.15814851    0.37630526   -2.67557189
 C                 -0.71577514   -0.98517997   -2.67557189
 C                  0.71577514   -0.98517997   -2.67557189
 C                  1.15814851    0.37630526   -2.67557189
 C                  0.71577514    0.98517997    2.67557189
 C                 -0.71577514    0.98517997    2.67557189
 C                 -1.15814851   -0.37630526    2.67557189
 C                 -0.00000000   -1.21774941    2.67557189
 C                  1.15814851   -0.37630526    2.67557189
 Zn                 0.00000000    0.00000000    0.00000000
 H                  2.16487976    0.70341207   -2.51938826
 H                  1.33796927   -1.84155672   -2.51938826
 H                 -1.33796927   -1.84155672   -2.51938826
 H                 -2.16487976    0.70341207   -2.51938826
 H                  0.00000000    2.27628929   -2.51938826
 H                 -0.00000000   -2.27628929    2.51938826
 H                  2.16487976   -0.70341207    2.51938826
 H                  1.33796927    1.84155672    2.51938826
 H                 -1.33796927    1.84155672    2.51938826
 H                 -2.16487976   -0.70341207    2.51938826

 1 2 1.5 5 1.5 11 0.5 16 1.0
 2 3 1.5 11 0.5 15 1.0
 3 4 1.5 11 0.5 14 1.0
 4 5 1.5 11 0.5 13 1.0
 5 11 0.5 12 1.0
 6 7 1.5 10 1.5 11 0.5 19 1.0
 7 8 1.5 11 0.5 20 1.0
 8 9 1.5 11 0.5 21 1.0
 9 10 1.5 11 0.5 17 1.0
 10 11 0.5 18 1.0
 11
 12
 13
 14
 15
 16
 17
 18
 19
 20
 21

--Link1--
%Chk=x3_09_d5d_1
# opt b3lyp/6-31g(d) geom=(connectivity,readopt)

decamethylzincocene (D5d): eta5,eta5
Constrained opt with D5d zincocene held fixed

0 1
 C                  0.00000000    1.21270676    1.95484598
 C                  1.15335266    0.37474700    1.95484598
 C                  0.71281115   -0.98110037    1.95484598
 C                 -0.71281115   -0.98110037    1.95484598
 C                 -1.15335266    0.37474700    1.95484598
 C                 -0.71281115    0.98110037   -1.95484598
 C                  0.71281115    0.98110037   -1.95484598
 C                  1.15335266   -0.37474700   -1.95484598
 C                  0.00000000   -1.21270676   -1.95484598
 C                 -1.15335266   -0.37474700   -1.95484598
 Zn                 0.00000000    0.00000000    0.00000000
 C                  0.00000000    2.75240096    1.98532426
 H                 -0.87355925    3.12077753    1.50068941
 H                  0.00000000    3.08899952    3.00088702
 H                  0.87355925    3.12077753    1.50068941
 C                 -2.61768887    0.85053867    1.98532426
 H                 -3.23798046    0.13356908    1.50068941
 H                 -2.93781312    0.95455335    3.00088702
 H                 -2.69809115    1.79517751    1.50068941
 C                 -1.61782069   -2.22673915    1.98532426
 H                 -1.12762273   -3.03822730    1.50068941
 H                 -1.81566836   -2.49905310    3.00088702
 H                 -2.54107128   -2.01129682    1.50068941
 C                  1.61782069   -2.22673915    1.98532426
 H                  2.54107128   -2.01129682    1.50068941
 H                  1.81566836   -2.49905310    3.00088702
 H                  1.12762273   -3.03822730    1.50068941
 C                  2.61768887    0.85053867    1.98532426
 H                  2.69809115    1.79517751    1.50068941
 H                  2.93781312    0.95455335    3.00088702
 H                  3.23798046    0.13356908    1.50068941
 C                  0.00000000   -2.75240096   -1.98532426
 H                 -0.87355925   -3.12077753   -1.50068941
 H                  0.00000000   -3.08899952   -3.00088702
 H                  0.87355925   -3.12077753   -1.50068941
 C                 -2.61768887   -0.85053867   -1.98532426
 H                 -3.23798046   -0.13356908   -1.50068941
 H                 -2.93781312   -0.95455335   -3.00088702
 H                 -2.69809115   -1.79517751   -1.50068941
 C                 -1.61782069    2.22673915   -1.98532426
 H                 -1.12762273    3.03822730   -1.50068941
 H                 -1.81566836    2.49905310   -3.00088702
 H                 -2.54107128    2.01129682   -1.50068941
 C                  1.61782069    2.22673915   -1.98532426
 H                  2.54107128    2.01129682   -1.50068941
 H                  1.81566836    2.49905310   -3.00088702
 H                  1.12762273    3.03822730   -1.50068941
 C                  2.61768887   -0.85053867   -1.98532426
 H                  2.93781312   -0.95455335   -3.00088702
 H                  3.23798046   -0.13356908   -1.50068941
 H                  2.69809115   -1.79517751   -1.50068941

 1 2 1.5 5 1.5 11 0.5 12 1.0
 2 3 1.5 11 0.5 28 1.0
 3 4 1.5 11 0.5 24 1.0
 4 5 1.5 11 0.5 20 1.0
 5 11 0.5 16 1.0
 6 7 1.5 10 1.5 11 0.5 40 1.0
 7 8 1.5 11 0.5 44 1.0
 8 9 1.5 11 0.5 48 1.0
 9 10 1.5 11 0.5 32 1.0
 10 11 0.5 36 1.0
 11
 12 13 1.0 14 1.0 15 1.0
 13
 14
 15
 16 17 1.0 18 1.0 19 1.0
 17
 18
 19
 20 21 1.0 22 1.0 23 1.0
 21
 22
 23
 24 25 1.0 26 1.0 27 1.0
 25
 26
 27
 28 29 1.0 30 1.0 31 1.0
 29
 30
 31
 32 33 1.0 34 1.0 35 1.0
 33
 34
 35
 36 37 1.0 38 1.0 39 1.0
 37
 38
 39
 40 41 1.0 42 1.0 43 1.0
 41
 42
 43
 44 45 1.0 46 1.0 47 1.0
 45
 46
 47
 48 49 1.0 50 1.0 51 1.0
 49
 50
 51

notatoms=1-11

--link1--
%Chk=x3_09_d5d_1
# freq b3lyp/6-31g(d) geom=(check,readopt) guess=read

decamethylzincocene (D5d): eta5,eta5
Run a frequency calculation on the geometry from the
constrained optimization to determine the structure’s 
status on the unconstrained PES.

0 1

atoms=1-51

--link1--
%OldChk=x3_09_d5d_1
%Chk=x3_09_d5d_2
# opt=rcfc freq b3lyp/6-31g(d) geom=check guess=read

full opt of decamethylzincocene (D5d): eta5,eta5

0 1


