%Chk=x3_07_eq
# opt freq APFD/6-311+g(2d,p) geom=connectivity Int=(UltraFine,Acc2E=12)

HCo(CO)4 H in equatorial position (C2v symmetry) Opt Freq

0 1
 Co                 0.00000000    0.00000000    0.42502747
 C                 -1.92041648    0.00000000    0.42631115
 C                  0.00000000   -1.65402356   -0.54320836
 C                  1.92041648    0.00000000    0.42631115
 C                  0.00000000    1.65402356   -0.54320836
 O                 -3.17254622    0.00000000    0.42713755
 O                  0.00000000   -2.73301443   -1.17451253
 O                  3.17254622    0.00000000    0.42713755
 O                  0.00000000    2.73301443   -1.17451253
 H                  0.00000000    0.00000000    1.88502442

 1 2 1.0 3 1.0 4 1.0 5 1.0 10 1.0
 2 6 2.0
 3 7 2.0
 4 8 2.0
 5 9 2.0
 6
 7
 8
 9
 10

