%Chk=x3_01_propene0
# opt freq APFD/6-311+g(2d,p) geom=connectivity Int=(UltraFine,Acc2E=12)

Propene CCCH=0 Opt Freq

0 1
 C                  0.00000000    0.00000000    0.00000000
 C                  0.00000000    0.00000000    1.34000000
 C                  1.31622595    0.00000000    2.10022974
 H                  0.93425303    0.00000000   -0.53982615
 H                 -0.93589033   -0.00000000   -0.54099011
 H                 -0.93493022    0.00000000    1.88065284
 H                  2.14404877    0.00000000    1.39267735
 H                  1.37390610    0.89079898    2.72747066
 H                  1.37390610   -0.89079898    2.72747066

 1 2 2.0 4 1.0 5 1.0
 2 3 1.0 6 1.0
 3 7 1.0 8 1.0 9 1.0
 4
 5
 6
 7
 8
 9

