%Chk=x3_03_product
# opt freq apfd/6-311+g(2d,p) geom=connectivity int=(ultrafine,acc2e=12)

GeH2 + H2 products

0 1
 Ge                -0.08810573   -0.67180613    0.00000000
 H                  1.43189427   -0.67180613    0.00000000
 H                 -1.60810573   -0.67180613    0.00000000
 H                 -0.10046957   -1.58163987    1.51813627
 H                 -0.69507762   -1.51230079    1.55855111

 1 2 1.0 3 1.0
 2
 3
 4 5 1.0
 5

