%Chk=x3_05_mid-ts
# opt=(calcfc,ts) freq hf/6-31g(d) geom=connectivity

Transition structure for the identity reaction:
Me4-Allyl+ + Me4-Allene -> Me4-Allene + Me4-Allyl+
HF Opt Freq to start. S4 symmetry forced

1 1
 C                 -0.00000000    0.00000000   -1.41732296
 C                 -0.79240241    0.98300587   -1.88613287
 C                  0.79240241   -0.98300587   -1.88613287
 H                  0.00000000   -0.00000000    0.00000000
 C                 -0.00000000    0.00000000    1.41732296
 C                 -0.98300587   -0.79240241    1.88613287
 C                  0.98300587    0.79240241    1.88613287
 C                 -1.43729274   -2.03610021    1.17718696
 H                 -1.26707601   -2.88621910    1.83259590
 H                 -2.50431331   -2.00185278    0.97804301
 H                 -0.90798231   -2.20697928    0.25261193
 C                 -2.03610021    1.43729274   -1.17718696
 H                 -2.00185278    2.50431331   -0.97804301
 H                 -2.88621910    1.26707601   -1.83259590
 H                 -2.20697928    0.90798231   -0.25261193
 C                  2.03610021   -1.43729274   -1.17718696
 H                  2.00185278   -2.50431331   -0.97804301
 H                  2.88621910   -1.26707601   -1.83259590
 H                  2.20697928   -0.90798231   -0.25261193
 C                  1.43729274    2.03610021    1.17718696
 H                  0.90798231    2.20697928    0.25261193
 H                  1.26707601    2.88621910    1.83259590
 H                  2.50431331    2.00185278    0.97804301
 C                 -0.41033247    1.79252039   -3.09737584
 H                 -1.27421709    1.92209112   -3.74197180
 H                 -0.09301757    2.78678106   -2.79346879
 H                  0.39331033    1.33492247   -3.65685590
 C                  0.41033247   -1.79252039   -3.09737584
 H                  1.27421709   -1.92209112   -3.74197180
 H                  0.09301757   -2.78678106   -2.79346879
 H                 -0.39331033   -1.33492247   -3.65685590
 C                  1.79252039    0.41033247    3.09737584
 H                  1.92209112    1.27421709    3.74197180
 H                  1.33492247   -0.39331033    3.65685590
 H                  2.78678106    0.09301757    2.79346879
 C                 -1.79252039   -0.41033247    3.09737584
 H                 -2.78678106   -0.09301757    2.79346879
 H                 -1.92209112   -1.27421709    3.74197180
 H                 -1.33492247    0.39331033    3.65685590

 1 2 2.0 3 2.0
 2 12 1.0 24 1.0
 3 16 1.0 28 1.0
 4
 5 6 2.0 7 2.0
 6 8 1.0 36 1.0
 7 20 1.0 32 1.0
 8 9 1.0 10 1.0 11 1.0
 9
 10
 11
 12 13 1.0 14 1.0 15 1.0
 13
 14
 15
 16 17 1.0 18 1.0 19 1.0
 17
 18
 19
 20 21 1.0 22 1.0 23 1.0
 21
 22
 23
 24 25 1.0 26 1.0 27 1.0
 25
 26
 27
 28 29 1.0 30 1.0 31 1.0
 29
 30
 31
 32 33 1.0 34 1.0 35 1.0
 33
 34
 35
 36 37 1.0 38 1.0 39 1.0
 37
 38
 39

--Link1--
%Chk=x3_05_mid-ts
# APFD/6-311+G(2d,p) Opt=(RCFC,Nodownhill) Freq Geom=(check,modred) Guess=Read Int=(UltraFine,Acc2E=12)

Transition structure for the identity reaction:
Me4-Allyl+ + Me4-Allene -> Me4-Allene + Me4-Allyl+
Standard model constrained opt: freeze coordinates related to imaginary freq

1,1

B 1 4 F
B 4 5 F

--Link1--
%Chk=x3_05_mid-ts
# APFD/6-311+G(2d,p) Opt=(ts,rcfc) Freq Geom=(check,modred) Guess=Read Int=(UltraFine,Acc2E=12)

Transition structure for the identity reaction:
Me4-Allyl+ + Me4-Allene -> Me4-Allene + Me4-Allyl+
Standard model full optimization, activating all coordinates

1,1

B * * A



