%Chk=x3_05_midcplx
# opt freq APFD/6-31g(d) geom=connectivity Int=(UltraFine,Acc2E=12)

Me4-Allene...Me4-Allyl+ Complex

1 1
 C                  1.25776365   -0.13557489    1.84820370
 C                  0.00000000   -0.00000000    1.42353170
 C                 -1.25776365    0.13557489    1.84820370
 C                  2.31134972   -0.93929353    1.14387570
 H                  2.56211911   -1.81842119    1.74772070
 H                  1.99026770   -1.28779648    0.16563070
 H                  3.23610606   -0.36678148    1.03739470
 C                  1.72770146    0.60893287    3.07510570
 H                  2.27563643   -0.07645320    3.72998470
 H                  2.43009925    1.40292926    2.80600470
 H                  0.90325516    1.05274680    3.63184070
 C                 -1.72770146   -0.60893287    3.07510570
 H                 -2.27563643    0.07645320    3.72998470
 H                 -2.43009925   -1.40292926    2.80600470
 H                 -0.90325516   -1.05274680    3.63184070
 C                 -2.31134972    0.93929353    1.14387570
 H                 -3.23610606    0.36678148    1.03739470
 H                 -2.56211911    1.81842119    1.74772070
 H                 -1.99026770    1.28779648    0.16563070
 C                  0.14007932    1.26888616   -1.86213030
 C                  0.00000000   -0.00000000   -1.35945830
 C                 -0.14007932   -1.26888616   -1.86213030
 C                 -0.59781036    1.72319704   -3.07703230
 H                 -1.39405897    2.42003357   -2.78393130
 H                  0.06983511    2.29126336   -3.73191130
 H                 -1.05274680    0.90325516   -3.62776730
 C                  0.93148007    2.30804068   -1.13980230
 H                  1.81166456    2.54543535   -1.74964730
 H                  0.36903369    3.24166731   -1.03932130
 H                  1.27773080    1.98139741   -0.16155730
 C                  0.59781036   -1.72319704   -3.07703230
 H                 -0.06983511   -2.29126336   -3.73191130
 H                  1.05274680   -0.90325516   -3.62776730
 H                  1.39405897   -2.42003357   -2.78393130
 C                 -0.93148007   -2.30804068   -1.13980230
 H                 -1.81166456   -2.54543535   -1.74964730
 H                 -0.36903369   -3.24166731   -1.03932130
 H                 -1.27773080   -1.98139741   -0.16155730
 H                  0.00000000   -0.00000000   -0.29196330

 1 2 2.0 4 1.0 8 1.0
 2 3 2.0
 3 12 1.0 16 1.0
 4 5 1.0 6 1.0 7 1.0
 5
 6
 7
 8 9 1.0 10 1.0 11 1.0
 9
 10
 11
 12 13 1.0 14 1.0 15 1.0
 13
 14
 15
 16 17 1.0 18 1.0 19 1.0
 17
 18
 19
 20 21 2.0 23 1.0 27 1.0
 21 22 2.0 39 1.0
 22 31 1.0 35 1.0
 23 24 1.0 25 1.0 26 1.0
 24
 25
 26
 27 28 1.0 29 1.0 30 1.0
 28
 29
 30
 31 32 1.0 33 1.0 34 1.0
 32
 33
 34
 35 36 1.0 37 1.0 38 1.0
 36
 37
 38
 39

--Link1--
%Chk=x3_05_midcplx
# opt=readfc freq APFD 6-311+g(2d,p) geom=allcheck guess=read symm=loose Int=(UltraFine,Acc2E=12)


