%Chk=x3_09_d5h_0
# opt 6-31g(d) geom=connectivity b3lyp

zincocene (D5h): eta5,eta5

0 1
 C                  0.00000000    1.33470121   -2.61854053
 C                 -1.26937628    0.41244536   -2.61854053
 C                 -0.78451769   -1.07979596   -2.61854053
 C                  0.78451769   -1.07979596   -2.61854053
 C                  1.26937628    0.41244536   -2.61854053
 C                  1.26937628    0.41244536    2.61854053
 C                  0.00000000    1.33470121    2.61854053
 C                 -1.26937628    0.41244536    2.61854053
 C                 -0.78451769   -1.07979596    2.61854053
 C                  0.78451769   -1.07979596    2.61854053
 Zn                 0.00000000   -0.00000000    0.00000000
 H                  1.39900082   -1.92555943   -2.39051720
 H                  2.26363087    0.73549825   -2.39051720
 H                 -0.00000000    2.38012235   -2.39051720
 H                 -2.26363087    0.73549825   -2.39051720
 H                 -1.39900082   -1.92555943   -2.39051720
 H                 -1.39900082   -1.92555943    2.39051720
 H                 -2.26363087    0.73549825    2.39051720
 H                  0.00000000    2.38012235    2.39051720
 H                  2.26363087    0.73549825    2.39051720
 H                  1.39900082   -1.92555943    2.39051720

 1 2 1.5 5 1.5 11 0.5 14 1.0
 2 3 1.5 11 0.5 15 1.0
 3 4 1.5 11 0.5 16 1.0
 4 5 1.5 11 0.5 12 1.0
 5 11 0.5 13 1.0
 6 7 1.5 10 1.5 11 0.5 20 1.0
 7 8 1.5 11 0.5 19 1.0
 8 9 1.5 11 0.5 18 1.0
 9 10 1.5 11 0.5 17 1.0
 10 11 0.5 21 1.0
 11
 12
 13
 14
 15
 16
 17
 18
 19
 20
 21

--Link1--
%Chk=x3_09_d5h_1
# opt freq b3lyp/6-31g(d) geom=(connectivity,readopt)

decamethylzincocene (D5h): eta5,eta5
Constrained opt with D5h zincocene held fixed

0 1
 C                  0.00000000    1.21270649    1.95715700
 C                  1.15335241    0.37474692    1.95715700
 C                  0.71281099   -0.98110016    1.95715700
 C                 -0.71281099   -0.98110016    1.95715700
 C                 -1.15335241    0.37474692    1.95715700
 C                 -1.15335241    0.37474692   -1.95715700
 C                 -0.00000000    1.21270649   -1.95715700
 C                  1.15335241    0.37474692   -1.95715700
 C                  0.71281099   -0.98110016   -1.95715700
 C                 -0.71281099   -0.98110016   -1.95715700
 Zn                 0.00000000   -0.00000000    0.00000000
 C                  0.00000000    2.75240785    1.98727726
 H                 -0.87356139    3.12065047    1.50240853
 H                  0.00000000    3.08924330    3.00276415
 H                  0.87356139    3.12065047    1.50240853
 C                 -1.61782474   -2.22674472    1.98727726
 H                 -1.12754631   -3.03812576    1.50240853
 H                 -1.81581165   -2.49925033    3.00276415
 H                 -2.54099833   -2.01119276    1.50240853
 C                 -2.61769542    0.85054080    1.98727726
 H                 -2.93804497    0.95462868    3.00276415
 H                 -2.69796965    1.79514028    1.50240853
 H                 -3.23786028    0.13352778    1.50240853
 C                  2.61769542    0.85054080    1.98727726
 H                  2.93804497    0.95462868    3.00276415
 H                  3.23786028    0.13352778    1.50240853
 H                  2.69796965    1.79514028    1.50240853
 C                  1.61782474   -2.22674472    1.98727726
 H                  1.81581165   -2.49925033    3.00276415
 H                  1.12754631   -3.03812576    1.50240853
 H                  2.54099833   -2.01119276    1.50240853
 C                  1.61782474   -2.22674472   -1.98727726
 H                  1.12754631   -3.03812576   -1.50240853
 H                  1.81581165   -2.49925033   -3.00276415
 H                  2.54099833   -2.01119276   -1.50240853
 C                  2.61769542    0.85054080   -1.98727726
 H                  2.93804497    0.95462868   -3.00276415
 H                  2.69796965    1.79514028   -1.50240853
 H                  3.23786028    0.13352778   -1.50240853
 C                 -0.00000000    2.75240785   -1.98727726
 H                 -0.00000000    3.08924330   -3.00276415
 H                 -0.87356139    3.12065047   -1.50240853
 H                  0.87356139    3.12065047   -1.50240853
 C                 -2.61769542    0.85054080   -1.98727726
 H                 -2.93804497    0.95462868   -3.00276415
 H                 -3.23786028    0.13352778   -1.50240853
 H                 -2.69796965    1.79514028   -1.50240853
 C                 -1.61782474   -2.22674472   -1.98727726
 H                 -2.54099833   -2.01119276   -1.50240853
 H                 -1.81581165   -2.49925033   -3.00276415
 H                 -1.12754631   -3.03812576   -1.50240853

 1 2 1.5 5 1.5 11 0.5 12 1.0
 2 3 1.5 11 0.5 24 1.0
 3 4 1.5 11 0.5 28 1.0
 4 5 1.5 11 0.5 16 1.0
 5 11 0.5 20 1.0
 6 7 1.5 10 1.5 11 0.5 44 1.0
 7 8 1.5 11 0.5 40 1.0
 8 9 1.5 11 0.5 36 1.0
 9 10 1.5 11 0.5 32 1.0
 10 11 0.5 48 1.0
 11
 12 13 1.0 14 1.0 15 1.0
 13
 14
 15
 16 17 1.0 18 1.0 19 1.0
 17
 18
 19
 20 21 1.0 22 1.0 23 1.0
 21
 22
 23
 24 25 1.0 26 1.0 27 1.0
 25
 26
 27
 28 29 1.0 30 1.0 31 1.0
 29
 30
 31
 32 33 1.0 34 1.0 35 1.0
 33
 34
 35
 36 37 1.0 38 1.0 39 1.0
 37
 38
 39
 40 41 1.0 42 1.0 43 1.0
 41
 42
 43
 44 45 1.0 46 1.0 47 1.0
 45
 46
 47
 48 49 1.0 50 1.0 51 1.0
 49
 50
 51

notatoms=1-11

--link1--
%Chk=x3_09_d5h_1
# freq b3lyp/6-31g(d) geom=(check,readopt) guess=read

decamethylzincocene (D5h): eta5,eta5
Run a frequency calculation on the geometry from the
constrained optimization to determine the structure’s 
status on the unconstrained PES.

0 1

atoms=1-51

--link1--
%OldChk=x3_09_d5h_1
%Chk=x3_09_d5h_2
# opt=readfc freq b3lyp/6-31g(d) geom=check guess=read

full opt of decamethylzincocene (D5h): eta5,eta5

0 1


