%Chk=x3_05_end-cplx
# opt freq APFD/6-31g(d) geom=connectivity Int=(UltraFine,Acc2E=12)

Me4-Allene...Me2-2-Propenyl+ Complex

1 1
 C                 -1.10596797    0.84676524    0.00000000
 C                 -0.45335084    2.05587059    0.00000000
 C                  0.13724341    3.20114809    0.00000000
 C                 -1.79757064    0.41280795    1.30061300
 H                 -1.79430669   -0.67493834    1.36816000
 H                 -1.29161600    0.81710282    2.17832200
 H                 -2.83436122    0.75397258    1.30629200
 C                 -1.79757064    0.41280795   -1.30061300
 H                 -1.79430669   -0.67493834   -1.36816000
 H                 -2.83436122    0.75397258   -1.30629200
 H                 -1.29161600    0.81710282   -2.17832200
 C                  1.62858491    3.43140007    0.00000000
 H                  1.89868071    4.01865045   -0.88080800
 H                  1.89868071    4.01865045    0.88080800
 H                  2.20246219    2.51162937    0.00000000
 C                 -0.74582035    4.44360397    0.00000000
 H                 -0.51322446    5.03733501    0.88726700
 H                 -0.51322446    5.03733501   -0.88726700
 H                 -1.80637232    4.21048919    0.00000000
 H                 -0.19681127    0.21573152    0.00000000
 C                 -0.12981545   -3.19972981    0.00000000
 C                  0.44901970   -2.03268712    0.00000000
 C                  1.15310275   -0.90659538    0.00000000
 C                  0.74034213   -4.44585049    0.00000000
 H                  0.51988771   -5.05287006   -0.88126700
 H                  1.80532361   -4.20868855    0.00000000
 H                  0.51988771   -5.05287006    0.88126700
 C                 -1.62153931   -3.43845845    0.00000000
 H                 -1.90415892   -4.02089697   -0.88080800
 H                 -1.90415892   -4.02089697    0.88080800
 H                 -2.19946374   -2.51425825    0.00000000
 C                  1.78804528   -0.41062496    1.29461300
 H                  2.83445958   -0.72674196    1.31229200
 H                  1.78921084    0.68116849    1.36816000
 H                  1.29461445   -0.81973169    2.17232200
 C                  1.78804528   -0.41062496   -1.29461300
 H                  1.78921084    0.68116849   -1.36816000
 H                  2.83445958   -0.72674196   -1.31229200
 H                  1.29461445   -0.81973169   -2.17232200

 1 2 2.0 4 1.0 8 1.0
 2 3 2.0
 3 12 1.0 16 1.0
 4 5 1.0 6 1.0 7 1.0
 5
 6
 7
 8 9 1.0 10 1.0 11 1.0
 9
 10
 11
 12 13 1.0 14 1.0 15 1.0
 13
 14
 15
 16 17 1.0 18 1.0 19 1.0
 17
 18
 19
 20
 21 22 2.0 24 1.0 28 1.0
 22 23 2.0
 23 32 1.0 36 1.0
 24 25 1.0 26 1.0 27 1.0
 25
 26
 27
 28 29 1.0 30 1.0 31 1.0
 29
 30
 31
 32 33 1.0 34 1.0 35 1.0
 33
 34
 35
 36 37 1.0 38 1.0 39 1.0
 37
 38
 39

--link1--
%Chk=x3_05_end-cplx
# opt=readfc freq APFD 6-311+g(2d,p) geom=allcheck guess=read symm=loose Int=(UltraFine,Acc2E=12)


