%Chk=x3_01_vamine_min
# opt freq APFD/6-311+g(2d,p) geom=connectivity Int=(UltraFine,Acc2E=12)

Vinyl Amine C1 Opt Freq

0 1
 C                  0.00000000    0.00000000    0.00000000
 C                  0.00000000    0.00000000    1.32169000
 H                  0.92423893    0.00000000   -0.54561057
 H                 -0.91141725    0.02327877   -0.57300919
 H                  0.93219717   -0.01719420    1.86014249
 N                 -1.11399887    0.08950792    2.15384071
 H                 -1.98156154   -0.09848522    1.69648353
 H                 -1.03727141   -0.43910052    2.99672297

 1 2 2.0 3 1.0 4 1.0
 2 5 1.0 6 1.0
 3
 4
 5
 6 7 1.0 8 1.0
 7
 8

