%Chk=e9_02_h2o
# opt freq apfd/def2TZVPP int=(ultrafine,acc2e=12) nmr 

water

0 1
 O                  1.32645489    0.36880961    0.00000000
 H                  2.28645486    0.36905071    0.00000000
 H                  1.00622759    1.27382589    0.00000000

