%Chk=e9_06_ts_w1bd
# W1BD opt(ts,calcfc) geom=connectivity

methyl radical + ethene TS

0 2
 C                 -1.40110400   -0.36736300   -0.00002500
 H                 -1.75413900   -0.81173600    0.92293500
 H                 -1.75412400   -0.81207500   -0.92282400
 C                 -0.49870100    0.64087400   -0.00007900
 H                 -0.25019900    1.15780000   -0.91838600
 C                  1.65516500   -0.23705400    0.00002300
 H                  1.63296300   -0.80184800   -0.92158300
 H                  2.21152800    0.69174600   -0.00054900
 H                  1.63199100   -0.80024100    0.92257500
 H                 -0.25018300    1.15761200    0.91832100

 1 2 1.0 3 1.0 4 2.0
 2
 3
 4 5 1.0 10 1.0
 5
 6 7 1.0 8 1.0 9 1.0
 7
 8
 9
 10

