# uff symm=com iop(2/33=2)

Fragment 1 from phenol dimer at counterpoise APFD/6-31+G(d,p)

0 1 
 O(Fragment=1)     -1.36985460    1.86398448    0.58368597
 H(Fragment=1)     -0.51161073    1.92768501    0.13382600
 C(Fragment=1)     -2.04332876    0.75932200    0.17226220
 C(Fragment=1)     -1.55396279   -0.11499786   -0.80741999
 C(Fragment=1)     -3.27906464    0.50274110    0.77606753
 C(Fragment=1)     -2.30135975   -1.23547414   -1.17009480
 H(Fragment=1)     -0.59374566    0.07932738   -1.27778022
 C(Fragment=1)     -4.01526297   -0.61776110    0.40247335
 H(Fragment=1)     -3.64210135    1.19209323    1.53299643
 C(Fragment=1)     -3.53347639   -1.49614934   -0.57149070
 H(Fragment=1)     -1.91080213   -1.90897486   -1.92924920
 H(Fragment=1)     -4.97466043   -0.80674398    0.87813033
 H(Fragment=1)     -4.11096058   -2.37028546   -0.85877278

--link1--
# uff symm=com iop(2/33=2)

Fragment 2 from phenol dimer at counterpoise APFD/6-31+G(d,p)

0 1
 O(Fragment=2)      1.25772151    1.83764421   -0.47792736
 H(Fragment=2)      1.67578291    2.36423756   -1.16767255
 C(Fragment=2)      2.03910979    0.75290059   -0.15462456
 C(Fragment=2)      3.23013454    0.47020316   -0.82463185
 C(Fragment=2)      1.58372805   -0.07202611    0.87311087
 C(Fragment=2)      3.97159359   -0.65279621   -0.45655946
 H(Fragment=2)      3.57742346    1.11882765   -1.62719320
 C(Fragment=2)      2.33291150   -1.19142231    1.22604108
 H(Fragment=2)      0.65420087    0.16552734    1.38135116
 C(Fragment=2)      3.52758749   -1.48849765    0.56705231
 H(Fragment=2)      4.89967509   -0.87128853   -0.97815334
 H(Fragment=2)      1.97594433   -1.83636649    2.02444914
 H(Fragment=2)      4.10626099   -2.36332128    0.84888351

