%Chk=e9_08_scan_r
# Opt=ModRedundant rAPFd/6-311g(2d,p) geom=connectivity Int=(Ultrafine,Acc2E=12)

2,6-pyridyne rAPFd scan from bicyclic to monocyclic structure

0 1
 N                  1.30138400   -1.26582400    0.00000000
 C                  0.00000000   -0.94125500    0.00000000
 C                 -1.27547700   -0.40486300    0.00000000
 C                 -1.01963000    0.99196400    0.00000000
 C                  0.36815700    1.28662900    0.00000000
 C                  0.94122100    0.02652800    0.00000000
 H                 -2.23348900   -0.90191200    0.00000000
 H                 -1.80023300    1.75056000    0.00000000
 H                  0.83841100    2.25809700    0.00000000

 1 2 1.5 6 1.5
 2 3 2.0 6 2.0
 3 4 1.5 7 1.0
 4 5 1.5 8 1.0
 5 6 2.0 9 1.0
 6
 7
 8
 9

B 2 6 S 20 0.05

