# uff symm=com iop(2/33=2)

Fragment 1 from phenol dimer at counterpoise APFD/3-21G

0 1 
 O(Fragment=1)     -1.26607220    1.75974070    0.64618646
 H(Fragment=1)     -0.37632784    1.78126777    0.17311723
 C(Fragment=1)     -2.04335967    0.72147852    0.21186986
 C(Fragment=1)     -1.65426753   -0.18551912   -0.78555893
 C(Fragment=1)     -3.29914862    0.56094252    0.81444257
 C(Fragment=1)     -2.50315376   -1.22469497   -1.16328484
 H(Fragment=1)     -0.68696759   -0.07889937   -1.26407156
 C(Fragment=1)     -4.14123490   -0.47582713    0.43234189
 H(Fragment=1)     -3.58487414    1.27023864    1.58231074
 C(Fragment=1)     -3.75064201   -1.38022794   -0.56022519
 H(Fragment=1)     -2.18323479   -1.91720160   -1.93634429
 H(Fragment=1)     -5.10990112   -0.58115822    0.91160093
 H(Fragment=1)     -4.40872781   -2.18982879   -0.85685433

--link1--
# uff symm=com iop(2/33=2)

Fragment 2 from phenol dimer at counterpoise APFD/3-21G

0 1
 O(Fragment=2)      1.16916519    1.72792993   -0.49510807
 H(Fragment=2)      1.58529163    2.38845399   -1.09908079
 C(Fragment=2)      2.05386645    0.69780263   -0.17722607
 C(Fragment=2)      3.32290258    0.59731480   -0.74647294
 C(Fragment=2)      1.61605839   -0.25765111    0.74140734
 C(Fragment=2)      4.15666220   -0.46424328   -0.39597359
 H(Fragment=2)      3.66348262    1.34059752   -1.46237053
 C(Fragment=2)      2.45319099   -1.31528926    1.08231792
 H(Fragment=2)      0.62857932   -0.16131898    1.17556412
 C(Fragment=2)      3.72630506   -1.42556756    0.51744326
 H(Fragment=2)      5.14338105   -0.53671556   -0.84154097
 H(Fragment=2)      2.10670793   -2.05634954    1.79488743
 H(Fragment=2)      4.37477185   -2.25155964    0.78766719

