%Chk=e9_04_med_cc
# opt freq 6-31+g(d,p) geom=connectivity counterpoise=2 apfd int=(ultrafine,acc2e=12)

phenol dimer

0 1 0 1 0 1
 O(Fragment=2)      1.86728800    2.11908000    0.00115000
 H(Fragment=2)      2.51377500    2.32519600   -0.68289400
 C(Fragment=2)      1.82277400    0.75917100    0.18937400
 C(Fragment=2)      2.41267900   -0.13136300   -0.70513100
 C(Fragment=2)      1.08761200    0.29053700    1.27665100
 C(Fragment=2)      2.23412700   -1.50231300   -0.52465300
 H(Fragment=2)      2.98094100    0.23842900   -1.55607500
 C(Fragment=2)      0.90120800   -1.07716000    1.43354900
 H(Fragment=2)      0.62689800    1.00288000    1.95187000
 C(Fragment=2)      1.46871600   -1.98046000    0.53501400
 H(Fragment=2)      2.68139300   -2.19413300   -1.23183200
 H(Fragment=2)      0.28462500   -1.43633600    2.25064200
 H(Fragment=2)      1.30249200   -3.04577600    0.65333800
 O(Fragment=1)     -1.27801600    2.40484100    0.00693400
 H(Fragment=1)     -0.40527500    2.61690300   -0.34963600
 C(Fragment=1)     -1.54350300    1.08472800   -0.20484400
 C(Fragment=1)     -0.96855300    0.36696900   -1.25634600
 C(Fragment=1)     -2.40250700    0.44386000    0.68808500
 C(Fragment=1)     -1.20535400   -0.99853400   -1.37263400
 H(Fragment=1)     -0.30569600    0.86767500   -1.95633500
 C(Fragment=1)     -2.64919200   -0.91936200    0.54939700
 H(Fragment=1)     -2.83778700    1.01746500    1.49968800
 C(Fragment=1)     -2.04407800   -1.65171500   -0.47127700
 H(Fragment=1)     -0.71611300   -1.55517300   -2.16558400
 H(Fragment=1)     -3.30573900   -1.41544600    1.25828500
 H(Fragment=1)     -2.21726900   -2.71920300   -0.55925100

 1 2 1.0 3 1.0
 2
 3 4 1.5 5 1.5
 4 6 1.5 7 1.0
 5 8 1.5 9 1.0
 6 10 1.5 11 1.0
 7
 8 10 1.5 12 1.0
 9
 10 13 1.0
 11
 12
 13
 14 15 1.0 16 1.0
 15
 16 17 1.5 18 1.5
 17 19 1.5 20 1.0
 18 21 1.5 22 1.0
 19 23 1.5 24 1.0
 20
 21 23 1.5 25 1.0
 22
 23 26 1.0
 24
 25
 26

