%Chk=e9_02_w
# opt freq geom=connectivity def2tzvpp apfd nmr Int=(Ultrafine,Acc2E=12)

WO4(2-)

-2 1
 O                  0.00000000    1.84316300    0.50000000
 O                  1.84316300    0.00000000   -0.50000000
 O                  0.00000000   -1.84316300    0.50000000
 O                 -1.84316300    0.00000000   -0.50000000
 W                  0.00000000    0.00000000    0.00000000

 1 5 1.0
 2 5 1.0
 3 5 1.0
 4 5 1.0
 5

