# uff symm=com iop(2/33=2)

Fragment 1 from phenol dimer at APFD/6-31+g(d,p)

0 1 
 C                  1.96071576    0.77706626    0.09643593
 O                  1.33947554    1.93677748    0.42995135
 H                  0.46592429    1.99285969    0.00747372
 C                  1.40665188   -0.16484925   -0.78079469
 C                  2.10274793   -1.33929707   -1.06559389
 C                  3.34851242   -1.58797541   -0.49059083
 C                  3.89582641   -0.64232610    0.38022914
 C                  3.21084880    0.53277439    0.67535302
 H                  0.43430818    0.01645326   -1.23043823
 H                  1.66081045   -2.06498629   -1.74422300
 H                  3.88596336   -2.50456773   -0.71675709
 H                  4.86672260   -0.82102272    0.83615952
 H                  3.62507395    1.27472121    1.35206708

--link1--
# uff symm=com iop(2/33=2)

Fragment 2 from phenol dimer at APFD/6-31+g(d,p)

0 1
 O                 -1.31339135    1.96023755   -0.47657579
 C                 -1.99468474    0.81170823   -0.14311390
 H                 -1.67069167    2.34277856   -1.28559344
 C                 -1.59018535    0.15433979    1.01780995
 C                 -2.23458490   -1.02246235    1.38916259
 C                 -3.27465024   -1.54169219    0.61550659
 C                 -3.66849544   -0.87235686   -0.54209279
 C                 -3.02964772    0.30592360   -0.92990358
 H                 -0.77538450    0.56282894    1.60816281
 H                 -1.91571039   -1.53880715    2.29054492
 H                 -3.77193843   -2.46063074    0.91192087
 H                 -4.47598480   -1.26556929   -1.15402512
 H                 -3.33609541    0.82470379   -1.83674170

