%Chk=e9_01_ir
# opt=tight freq apfd/sdd geom=connectivity int=(ultrafine,acc2e=12) 

IrF6 Opt Freq

0 4
 F                  0.00000000    0.00000000    1.84000000
 F                  0.00000000    1.84000000    0.00000000
 F                  1.84000000    0.00000000   -0.00000000
 F                  0.00000000   -1.84000000   -0.00000000
 F                 -0.00000000    0.00000000   -1.84000000
 F                 -1.84000000    0.00000000    0.00000000
 Ir                -0.00000000    0.00000000   -0.00000000

 1 7 1.0
 2 7 1.0
 3 7 1.0
 4 7 1.0
 5 7 1.0
 6 7 1.0
 7

--link1--
%Chk=e9_01_ir
# opt=(readfc,tight) freq apfd/GenECP geom=allcheck guess=read int=(ultrafine,acc2e=12) 

F 0
6-311+G(2d,p)
****
Ir 0
MWB60
****

Ir 0
MWB60

--link1--
%Chk=e9_01_ir
# opt=(readfc,tight) freq apfd/def2tzvpp geom=allcheck guess=read int=(ultrafine,acc2e=12) 

