%Chk=e9_04_small
# opt freq 6-31g(d) geom=connectivity apfd int=(ultrafine,acc2e=12)

phenol dimer

0 1
 C                  1.56946700    1.05033300   -0.20553600
 O                  1.34209000    2.37740000    0.00976000
 H                  0.46032500    2.60514800   -0.31531800
 C                  0.96855000    0.35192100   -1.25587900
 C                  1.15897500   -1.02072100   -1.37221200
 C                  1.97925200   -1.70095400   -0.47386100
 C                  2.61435100   -0.98863200    0.54270400
 C                  2.41313800    0.38218300    0.68211400
 H                  0.32126500    0.87464800   -1.95435400
 H                  0.64853000   -1.56132500   -2.16298300
 H                  2.11579400   -2.77384800   -0.56157600
 H                  3.25824800   -1.50598700    1.24804300
 H                  2.87005200    0.94122200    1.49205500
 O                 -1.74274000    2.16716500    0.02633900
 C                 -1.77150100    0.80418100    0.20227800
 H                 -2.38530800    2.41526500   -0.64764400
 C                 -1.05700400    0.28645700    1.28087700
 C                 -0.93952300   -1.09072200    1.42013700
 C                 -1.55661800   -1.95318700    0.51403800
 C                 -2.30161900   -1.42403600   -0.53583200
 C                 -2.40983300   -0.04371100   -0.69986600
 H                 -0.55767800    0.96610000    1.96237900
 H                 -0.33843900   -1.49045300    2.23002000
 H                 -1.44532000   -3.02703300    0.61974900
 H                 -2.78744400   -2.08366800   -1.24835800
 H                 -2.96063400    0.36475200   -1.54457800

 1 2 1.0 4 1.5 8 1.5
 2 3 1.0
 3
 4 5 1.5 9 1.0
 5 6 1.5 10 1.0
 6 7 1.5 11 1.0
 7 8 1.5 12 1.0
 8 13 1.0
 9
 10
 11
 12
 13
 14 15 1.0 16 1.0
 15 17 1.5 21 1.5
 16
 17 18 1.5 22 1.0
 18 19 1.5 23 1.0
 19 20 1.5 24 1.0
 20 21 1.5 25 1.0
 21 26 1.0
 22
 23
 24
 25
 26

