# uff symm=com iop(2/33=2)

Fragment 1 from phenol dimer at APFD/6-31G(d)

0 1
 C                  1.94685649    0.75881437    0.16857550
 O                  1.27591044    1.86266576    0.58394380
 H                  0.45637795    1.96277004    0.06510850
 C                  1.48845523   -0.07562082   -0.85897044
 C                  2.22910331   -1.19862285   -1.22090486
 C                  3.42455369   -1.50366826   -0.57382794
 C                  3.87638110   -0.66656559    0.44775545
 C                  3.14681066    0.45669005    0.82069253
 H                  0.55524194    0.15410899   -1.36642979
 H                  1.86129836   -1.84104402   -2.01814105
 H                  3.99763686   -2.38137637   -0.86080226
 H                  4.80850275   -0.89064650    0.96200167
 H                  3.48646531    1.11594055    1.61487076

--link1--
# uff symm=com iop(2/33=2)

Fragment 2 from phenol dimer at APFD/6-31G(d)

0 1
 O                 -1.27246915    1.88428906   -0.56972559
 C                 -1.98474282    0.76925642   -0.19276332
 H                 -1.62620987    2.23674656   -1.39773166
 C                 -1.56469434    0.11256451    0.96297612
 C                 -2.24850852   -1.02436189    1.38003094
 C                 -3.34071256   -1.50654216    0.65757637
 C                 -3.74796088   -0.83981425   -0.49527926
 C                 -3.07243946    0.30012758   -0.92825310
 H                 -0.70969981    0.49506481    1.51220411
 H                 -1.91916685   -1.53967727    2.27874359
 H                 -3.86847995   -2.39607970    0.99031673
 H                 -4.59665381   -1.20475314   -1.06850107
 H                 -3.39145450    0.81976500   -1.83103312

