%Chk=x9_05_o2_s
# opt freq uAPFd/6-311+g(2d,p) geom=connectivity Int=(Ultrafine,Acc2E=12) Guess=Mix

open shell singlet O2

0 1
 O                 0.00000000   0.00000000    0.58080000
 O                 0.00000000   0.00000000   -0.58080000

 1 2 2.0
 2

