# UFF Symmetry=COM IOP(2/33=2)

Fragment 1 from phenol dimer at counterpoise APF/6-311+G(2d,p)

 0,1
 O(Fragment=1)     -1.15939005   -1.09854765    0.62545651
 C(Fragment=1)     -2.31201989   -0.44064977    0.28126220
 H(Fragment=1)     -1.36832062   -1.83588328    1.20700995
 C(Fragment=1)     -2.20477301    0.63125895   -0.59385974
 C(Fragment=1)     -3.34801716    1.32413184   -0.96013886
 C(Fragment=1)     -4.59183802    0.95613101   -0.46234381
 C(Fragment=1)     -4.68522013   -0.11791293    0.41059514
 C(Fragment=1)     -3.54821794   -0.81991703    0.78621506
 H(Fragment=1)     -1.23143184    0.91054802   -0.98090658
 H(Fragment=1)     -3.26291238    2.16107015   -1.64453312
 H(Fragment=1)     -5.48126462    1.50229987   -0.75387664
 H(Fragment=1)     -5.64943593   -0.41724660    0.80657475
 H(Fragment=1)     -3.62363408   -1.66069620    1.47057149

--link1--
# UFF Symmetry=COM IOP(2/33=2)

Fragment 2 from phenol dimer at counterpoise APF/6-311+G(2d,p)

 0,1
 C(Fragment=2)      2.35961472   -0.53418830   -0.35644434
 O(Fragment=2)      1.34963052   -1.28982728   -0.85140654
 H(Fragment=2)      0.54322827   -1.15672697   -0.33139074
 C(Fragment=2)      2.20273334    0.30087642    0.74779610
 C(Fragment=2)      3.27770914    1.05075171    1.20520186
 C(Fragment=2)      4.51138865    0.97849735    0.57417389
 C(Fragment=2)      4.66001119    0.14289799   -0.52685571
 C(Fragment=2)      3.59541277   -0.61051812   -0.99372032
 H(Fragment=2)      1.23912652    0.36025782    1.24460973
 H(Fragment=2)      3.14439803    1.69818047    2.06572515
 H(Fragment=2)      5.34784739    1.56587837    0.93494195
 H(Fragment=2)      5.61864522    0.07593726   -1.03072294
 H(Fragment=2)      3.70112832   -1.26477412   -1.85169161

