%chk=x9_02_os.chk
# opt freq apfd geom=connectivity def2tzvpp nmr Int=(Ultrafine,Acc2E=12)

OsO4

0 1
 O                  0.00000000    0.00000000    1.77780569
 O                  0.00000000    1.71591246   -0.53986097
 O                  1.48602378   -0.85795623   -0.53986097
 O                 -1.48602378   -0.85795623   -0.53986097
 Os                 0.00000000    0.00000000    0.06680569

 1 5 1.0
 2 5 1.0
 3 5 1.0
 4 5 1.0
 5

