%chk=x9_06_ts
# opt=(calcfc,modredundant) freq apfd/6-311+g(2d,p) geom=connectivity
int=(ultrafine,acc2e=12)

Constrained opt with intermolecular C-C bond frozen

0 2
 C                 -0.36123400    0.77477600    0.37720600
 H                 -0.40191800    1.28956800    1.33027100
 C                  0.71002800    0.90187000   -0.43950600
 H                  0.70886900    0.47081000   -1.43080200
 C                  2.34773400   -0.82292500    0.13026300
 H                  1.71252500   -1.67797200   -0.05006800
 H                  3.08187600   -0.56043000   -0.61928300
 H                  2.53639700   -0.53444800    1.15425300
 H                  1.47825400    1.62776800   -0.21403100
 C                 -1.46080800   -0.07132400    0.07804200
 N                 -2.36147500   -0.75852500   -0.14948200

 1 2 1.0 3 2.0 10 1.5
 2
 3 4 1.0 9 1.0
 4
 5 6 1.0 7 1.0 8 1.0
 6
 7
 8
 9
 10 11 3.0
 11

B 5 3 F

--Link1--
%chk=x9_06_ts
# opt=(ts,rcfc,modredundant) freq apfd/6-311+g(2d,p) geom=check guess=read
int=(ultrafine,acc2e=12)

Unconstrained opt 

0 2

B 5 3 A

