%chk=x9_03_apf_scan_cc
# opt=modredundant 6-311+g(2d,p) geom=connectivity counterpoise=2 apf int=(ultrafine,acc2e=12)

methane dimer D3D: C...C distance scan

0 1 0 1 0 1
 C(Fragment=1)      0.00000000    0.00000000    1.30000000
 C(Fragment=2)      0.00000000    0.00000000   -1.30000000
 H(Fragment=1)      0.00000000    1.02689800    0.93601500
 H(Fragment=1)      0.88931976   -0.51344900    0.93601500
 H(Fragment=1)     -0.88931976   -0.51344900    0.93601500
 H(Fragment=2)      0.00000000   -1.02689800   -0.93601500
 H(Fragment=2)     -0.88931976    0.51344900   -0.93601500
 H(Fragment=2)      0.88931976    0.51344900   -0.93601500
 H(Fragment=1)      0.00000000    0.00000000    2.38946100
 H(Fragment=2)      0.00000000    0.00000000   -2.38946100

 1 3 1.0 4 1.0 5 1.0 9 1.0 2 1.0
 2 6 1.0 7 1.0 8 1.0 10 1.0
 3
 4
 5
 6
 7
 8
 9
 10

B 1 2 S 17 0.200000

--link1--
%chk=x9_03_apf_opt_cc
# opt 6-311+g(2d,p) geom=connectivity apf int=(ultrafine,acc2e=12) counterpoise=2

methane dimer D3D: minimum

0 1 0 1 0 1
 C(Fragment=1)      0.00000000    0.00000000    1.80000000
 C(Fragment=2)      0.00000000    0.00000000   -1.80000000
 H(Fragment=1)      0.00000000    1.02689800    1.43601500
 H(Fragment=1)      0.88931976   -0.51344900    1.43601500
 H(Fragment=1)     -0.88931976   -0.51344900    1.43601500
 H(Fragment=2)      0.00000000   -1.02689800   -1.43601500
 H(Fragment=2)     -0.88931976    0.51344900   -1.43601500
 H(Fragment=2)      0.88931976    0.51344900   -1.43601500
 H(Fragment=1)      0.00000000    0.00000000    2.88946100
 H(Fragment=2)      0.00000000    0.00000000   -2.88946100

 1 3 1.0 4 1.0 5 1.0 9 1.0 2 0.5
 2 6 1.0 7 1.0 8 1.0 10 1.0
 3
 4
 5
 6
 7
 8
 9
 10

