%chk=x9_04_apf_CC
# OPT Freq APF 6-311+G(2d,p) geom=connectivity Counterpoise=2 Int=(Ultrafine,Acc2E=12)

phenol dimer

0 1
 C(Fragment=2)      2.36475825    0.54536527    0.15403688
 O(Fragment=2)      1.36874437    1.41559330    0.44849433
 H(Fragment=2)      0.55285175    1.16053256   -0.00722467
 C(Fragment=2)      2.18338875   -0.54729954   -0.69123244
 C(Fragment=2)      3.24505010   -1.40289922   -0.95186633
 C(Fragment=2)      4.48954483   -1.18246909   -0.37913143
 C(Fragment=2)      4.66260745   -0.09003227    0.46301580
 C(Fragment=2)      3.61150508    0.77133688    0.73170688
 H(Fragment=2)      1.21124733   -0.72334224   -1.14160771
 H(Fragment=2)      3.09268205   -2.25106211   -1.61129009
 H(Fragment=2)      5.31553400   -1.85324840   -0.58560199
 H(Fragment=2)      5.62995008    0.09522566    0.91828793
 H(Fragment=2)      3.73629012    1.62573934    1.38727257
 O(Fragment=1)     -1.16581449    0.87395499   -0.89148126
 C(Fragment=1)     -2.31739103    0.34207401   -0.37106921
 H(Fragment=1)     -1.37893093    1.43612169   -1.64252723
 C(Fragment=1)     -2.20353316   -0.46517402    0.75219181
 C(Fragment=1)     -3.34561677   -1.02515188    1.30292761
 C(Fragment=1)     -4.59478709   -0.78572340    0.74385508
 C(Fragment=1)     -4.69473045    0.02399681   -0.37805277
 C(Fragment=1)     -3.55897556    0.59041979   -0.94010225
 H(Fragment=1)     -1.22598321   -0.64480474    1.18500747
 H(Fragment=1)     -3.25533204   -1.65517198    2.18100917
 H(Fragment=1)     -5.48325415   -1.22653704    1.18052530
 H(Fragment=1)     -5.66315702    0.22053672   -0.82485755
 H(Fragment=1)     -3.63954428    1.22404590   -1.81928789

 1 2 1.0 4 1.5 8 1.5
 2 3 1.0
 3
 4 5 1.5 9 1.0
 5 6 1.5 10 1.0
 6 7 1.5 11 1.0
 7 8 2.0 12 1.0
 8 13 1.0
 9
 10
 11
 12
 13
 14 15 1.0 16 1.0
 15 17 1.5 21 1.5
 16
 17 18 1.5 22 1.0
 18 19 1.5 23 1.0
 19 20 1.5 24 1.0
 20 21 1.5 25 1.0
 21 26 1.0
 22
 23
 24
 25
 26

