%chk=x9_02_mn.chk
# opt freq geom=connectivity def2tzvpp apfd nmr Int=(Ultrafine,Acc2E=12)

MnO4(-)

-1 1
 O                  0.00000000   -0.00000000    1.69998015
 O                  0.00000000    1.66968776   -0.51931061
 O                  1.44599202   -0.83484388   -0.51931061
 O                 -1.44599202   -0.83484388   -0.51931061
 Mn                 0.00000000   -0.00000000    0.07098015

 1 5 1.0
 2 5 1.0
 3 5 1.0
 4 5 1.0
 5

