%Chk=x9_01_ir
# opt=tight freq apfd/lanl2dz geom=connectivity int=(ultrafine,acc2e=12) 

IrF6 Opt Freq

0 4
 F                  0.00000000    0.00000000    1.84000000
 F                  0.00000000    1.84000000    0.00000000
 F                  1.84000000    0.00000000   -0.00000000
 F                  0.00000000   -1.84000000   -0.00000000
 F                 -0.00000000    0.00000000   -1.84000000
 F                 -1.84000000    0.00000000    0.00000000
 Ir                -0.00000000    0.00000000   -0.00000000

 1 7 1.0
 2 7 1.0
 3 7 1.0
 4 7 1.0
 5 7 1.0
 6 7 1.0
 7

--link1--
%Chk=x9_01_ir
# opt=tight freq apfd/def2qzvpp geom=connectivity int=(ultrafine,acc2e=12) 

IrF6 Opt Freq

0 4
 F                  0.00000000    0.00000000    1.84000000
 F                  0.00000000    1.84000000    0.00000000
 F                  1.84000000    0.00000000   -0.00000000
 F                  0.00000000   -1.84000000   -0.00000000
 F                 -0.00000000    0.00000000   -1.84000000
 F                 -1.84000000    0.00000000    0.00000000
 Ir                -0.00000000    0.00000000   -0.00000000

 1 7 1.0
 2 7 1.0
 3 7 1.0
 4 7 1.0
 5 7 1.0
 6 7 1.0
 7


