%Chk=x9_06_etheneCN
# opt freq rAPFd/6-311+g(2d,p) geom=connectivity Int=(Ultrafine,Acc2E=12)

2-propenenitrile

0 1
 C                  0.00000000    0.00000000    0.66267600
 H                  0.00000000    0.92252100    1.23247200
 H                  0.00000000   -0.92252100    1.23247200
 C                  0.00000000    0.00000000   -0.66267600
 H                  0.00000000   -0.92252100   -1.23247200
 C                  0.00000000    1.31022662   -1.47193876
 N                 -0.00000000    2.29715057   -2.08151330

 1 2 1.0 3 1.0 4 2.0
 2
 3
 4 5 1.0 6 1.0
 5
 6 7 3.0
 7

