# uff symm=com iop(2/33=2)

Fragment 1 from phenol dimer at APFD/6-311+G(2d,p)

0 1
 C                  1.93169838    0.78191297    0.08086389
 O                  1.32039876    1.94982135    0.39701859
 H                  0.44818553    1.99888346   -0.02462632
 C                  1.37441776   -0.16149701   -0.78370742
 C                  2.05712582   -1.34034804   -1.05255949
 C                  3.29355871   -1.59277423   -0.47332553
 C                  3.84463781   -0.64669916    0.38480437
 C                  3.17249579    0.53296693    0.66369756
 H                  0.40603915    0.02350136   -1.23661742
 H                  1.61160874   -2.06868192   -1.72314369
 H                  3.82227123   -2.51524984   -0.68711539
 H                  4.81080329   -0.82931629    0.84507722
 H                  3.59192786    1.27669790    1.33274861

--link1--
# uff symm=com iop(2/33=2)

Fragment 2 from phenol dimer at APFD/6-311+G(2d,p)

0 1
 O                 -1.35471123    1.99141120   -0.48716212
 C                 -1.98924926    0.82122331   -0.14384112
 H                 -1.70340402    2.32166745   -1.32071934
 C                 -1.59186461    0.21348729    1.03932488
 C                 -2.18735013   -0.97915205    1.41994681
 C                 -3.17269943   -1.56431773    0.63260933
 C                 -3.56077370   -0.94538398   -0.54767059
 C                 -2.97068401    0.24837637   -0.94351284
 H                 -0.81546894    0.67343396    1.64059291
 H                 -1.87208560   -1.45758328    2.34123996
 H                 -3.63282405   -2.49801685    0.93632653
 H                 -4.32762635   -1.39190210   -1.17212467
 H                 -3.27280584    0.72993760   -1.87026920

