%Chk=x9_05_o22+_t
# opt freq uAPFd/6-311+g(2d,p) geom=connectivity Int=(Ultrafine,Acc2E=12)

triplet O2 [2+] dication

2 3
 O                  0.00000000    0.00000000    0.51480000
 O                  0.00000000    0.00000000   -0.51480000

 1 2 3.0
 2

