%chk=e6_05_dcb_ts
# opt=(calcfc,qst3) freq apfd/6-311+g(2d,p) int(ultrafine,acc2e=12)
scrf=(smd,solvent=o-dichlorobenzene) geom=connectivity

E to Z transition structure for N-methyl-(2-nitrovinyl)amine in
o-dichlorobenzene

0 1
 N                 -1.40887941   -0.02216512    0.26235227
 C                 -0.59135300   -0.81049600   -0.46946400
 O                 -2.40294048   -0.50331561    0.85073959
 O                 -1.15152619    1.21826557    0.31934558
 C                  0.69128450   -0.22130729   -0.79069315
 H                 -0.93073464   -1.83680285   -0.53772813
 H                  0.87249712    0.28372611   -1.73915358
 N                  1.63840520   -0.11934928    0.07102541
 H                  1.47836757   -0.52192579    0.99310433
 C                  2.95320842    0.43744904   -0.17834264
 H                  2.97791513    0.87120443   -1.17606058
 H                  3.70293052   -0.35100095   -0.09395714
 H                  3.15435968    1.20353649    0.57152500

 1 2 1.5 3 1.5 4 1.5
 2 5 1.5 6 1.0
 3
 4
 5 7 1.0 8 2.0
 6
 7
 8 9 1.0 10 1.0
 9
 10 11 1.0 12 1.0 13 1.0
 11
 12
 13

E to Z transition structure for N-methyl-(2-nitrovinyl)amine in
o-dichlorobenzene

0 1
 N                 -1.60145394    0.07545983   -0.32751885
 C                 -0.59135300   -0.81049600   -0.46946400
 O                 -2.67110674   -0.25817154    0.22961295
 O                 -1.44190260    1.24498731   -0.79108766
 C                  0.69128450   -0.22130729   -0.79069315
 H                 -0.93073464   -1.83680285   -0.53772813
 H                  0.87249712    0.28372611   -1.73915358
 N                  1.63840520   -0.11934928    0.07102541
 H                  1.47836757   -0.52192579    0.99310433
 C                  2.95320842    0.43744904   -0.17834264
 H                  2.97791513    0.87120443   -1.17606058
 H                  3.70293052   -0.35100095   -0.09395714
 H                  3.15435968    1.20353649    0.57152500

 1 2 1.5 3 1.5 4 1.5
 2 5 1.5 6 1.0
 3
 4
 5 7 1.0 8 2.0
 6
 7
 8 9 1.0 10 1.0
 9
 10 11 1.0 12 1.0 13 1.0
 11
 12
 13

E to Z transition structure for N-methyl-(2-nitrovinyl)amine in
o-dichlorobenzene

0 1
 N                 -1.51541200    0.06138400   -0.00977900
 C                 -0.59135300   -0.81049600   -0.46946400
 O                 -2.54441906   -0.34614121    0.57411356
 O                 -1.31974461    1.29919720   -0.20389229
 C                  0.69128450   -0.22130729   -0.79069315
 H                 -0.93073464   -1.83680285   -0.53772813
 H                  0.87249712    0.28372611   -1.73915358
 N                  1.63840520   -0.11934928    0.07102541
 H                  1.47836757   -0.52192579    0.99310433
 C                  2.95320842    0.43744904   -0.17834264
 H                  2.97791513    0.87120443   -1.17606058
 H                  3.70293052   -0.35100095   -0.09395714
 H                  3.15435968    1.20353649    0.57152500

 1 2 1.5 3 1.5 4 1.5
 2 5 1.5 6 1.0
 3
 4
 5 7 1.0 8 2.0
 6
 7
 8 9 1.0 10 1.0
 9
 10 11 1.0 12 1.0 13 1.0
 11
 12
 13

