%Chk=e6_09_propane
# OPT FREQ APFd 6-311+G(2d,p) Geom=Connectivity Int(Ultrafine,Acc2E=12)

Propane Opt Freq

0 1
 C                 -0.00000897    0.00004266   -0.03004810
 C                  1.25740810   -0.00002309    0.85905387
 C                 -1.25740137   -0.00000891    0.85908875
 H                 -0.00002246   -0.87356792   -0.64787053
 H                 -0.00001261    0.87373476   -0.64775525
 H                  2.13105087    0.00001274    0.24127697
 H                 -2.13106128    0.00003678    0.24133608
 H                  1.25742159    0.87358749    1.47687630
 H                  1.25741174   -0.87371519    1.47676101
 H                 -1.25739773   -0.87370101    1.47679589
 H                 -1.25738788    0.87360167    1.47691118

 1 2 1.0 3 1.0 4 1.0 5 1.0
 2 6 1.0 8 1.0 9 1.0
 3 7 1.0 10 1.0 11 1.0
 4
 5
 6
 7
 8
 9
 10
 11

