%Chk=e6_07_ts1
# OPT=QST2 FREQ APFd 6-311+G(2d,p) Geom=Connectivity Int(Ultrafine,Acc2E=12)

CH2O <---> CO + H2 TS

0 1
 C                  0.00000000    0.00000000    0.00510956
 O                  0.00000000    0.00000000    1.12050957
 H                  1.58183742    0.20125902   -1.99446569
 H                  1.99147505    0.25337769   -1.55917193

 1 2 3.0
 2
 3 4 1.0
 4

CH2O <---> CO + H2 TS

0 1
 C                  0.00000000    0.00000000    0.00000000
 O                  0.00000000    0.00000000    1.20024500
 H                  0.94067800    0.00000000   -0.58467400
 H                 -0.94067800    0.00000000   -0.58467400

 1 2 2.0 3 1.0 4 1.0
 2
 3
 4

