%chk=e6_04_qst3
# OPT(QST3,CalcAll) APFd/6-31G(d) Geom=Connectivity

Allyl cation rotational isomerism ("reactant")

1 1
 C                  0.00000000    0.00000000    0.00000000
 H                  0.00000000    0.00000000    1.08388809
 C                  1.18483682    0.00000000   -0.70385725
 C                 -1.18483682    0.00000000   -0.70385725
 H                  2.14647535    0.00000000   -0.19862205
 H                 -2.14647535    0.00000000   -0.19862205
 H                  1.19319086    0.00000000   -1.79017105
 H                 -1.19319086    0.00000000   -1.79017105

 1 2 1.0 3 2.0 4 2.0
 2
 3 5 1.0 7 1.0
 4 6 1.0 8 1.0
 5
 6
 7
 8

Allyl cation rotational isomerism ("product")

1 1
 C                  0.00000000    0.00000000    0.00000000
 H                  0.00000000    0.00000000    1.08388809
 C                  1.18483682    0.00000000   -0.70385725
 C                 -1.18483682    0.00000000   -0.70385725
 H                  2.14647535    0.00000000   -0.19862205
 H                 -1.19319086    0.00000000   -1.79017105
 H                  1.19319086    0.00000000   -1.79017105
 H                 -2.14647535    0.00000000   -0.19862205

 1 2 1.0 3 2.0 4 2.0
 2
 3 7 1.0 5 1.0
 4 8 1.0 6 1.0
 5
 6
 7
 8

Allyl cation rotational isomerism ("TS guess")

1 1
 C                  0.00000000    0.00000000    0.00000000
 H                  0.00000000    0.00000000    1.08388809
 C                  1.18483682    0.00000000   -0.70385725
 C                 -1.18483682    0.00000000   -0.70385725
 H                  2.14647535    0.00000000   -0.19862205
 H                 -1.67378743   -0.92551053   -0.99432040
 H                  1.19319086    0.00000000   -1.79017105
 H                 -1.66800860    0.92968067   -0.99088746

 1 2 1.0 3 2.0 4 2.0
 2
 3 5 1.0 7 1.0
 4 6 1.0 8 1.0
 5
 6
 7
 8

--link1--
%chk=e6_04_qst3
# OPT(TS,ReadFC,tight) FREQ APFd/6-311+G(2d,p) guess=read geom=checkpoint int(ultrafine,acc2e=12)

Allyl cation rotational isomerism (TS search starting from TS found with smaller basis set)

1 1

