%chk=e6_03_indane_b
# freq apfd/6-311+g(2d,p) geom=connectivity int=(ultrafine,acc2e=12)

2-deuteroindane cation (deuterium cis to cyclopentene pucker)

1 1
 C                  0.96428600   -1.41043300   -0.00289900
 C                  2.24220900   -0.69105500    0.06051600
 C                  2.18973300    0.77362900    0.04786800
 C                  1.00779200    1.44310800   -0.01743800
 C                 -0.18283500    0.69350000   -0.06436300
 C                 -0.20575200   -0.72668000   -0.07018000
 C                 -1.62530900   -1.21432400   -0.14258800
 C                 -2.43912700    0.01755400    0.29249100
 C                 -1.56628000    1.21594500   -0.11807100
 H                  0.98667900   -2.49667000    0.00934100
 H                  0.97194000    2.52708000   -0.01843100
 H                  3.13067600    1.31393800    0.09823400
 H(Iso=2)           2.82581500   -1.02882400    0.93733900
 H                 -1.70593900    2.12668800    0.47009500
 H                 -1.75511800    1.50504200   -1.16609000
 H                 -3.43230100    0.05002800   -0.15371200
 H                 -2.56644600    0.01738800    1.37822200
 H                 -1.85687000   -1.49234200   -1.17761000
 H                 -1.80487200   -2.09631400    0.47380600
 H                  2.89813400   -1.03347500   -0.76319800

 1 2 1.0 6 2.0 10 1.0
 2 3 1.0 13 1.0 20 1.0
 3 4 2.0 12 1.0
 4 5 1.5 11 1.0
 5 6 1.5 9 1.0
 6 7 1.0
 7 8 1.0 18 1.0 19 1.0
 8 9 1.0 16 1.0 17 1.0
 9 14 1.0 15 1.0
 10
 11
 12
 13
 14
 15
 16
 17
 18
 19
 20

