%Chk=e6_01_diene_pm6
# opt freq pm6 geom=connectivity pop=full

1-methoxy-1,3-butadiene opt

0 1
 C                 -4.22244857    1.01771860   -0.18269846
 C                 -2.36160832   -0.31010410    0.29398501
 C                 -1.04278392   -0.54181677    0.08523043
 C                 -0.50028883   -1.98282793    0.11326487
 C                  0.81853559   -2.21454060   -0.09548959
 H                 -1.16464011   -2.80110095    0.29756530
 O                 -2.86535355    1.02797779    0.26795425
 H                 -3.02595967   -1.12837715    0.47828503
 H                 -0.37843266    0.27645624   -0.09907011
 H                  1.48288680   -1.39626761   -0.27979039
 H                  1.19546399   -3.21576264   -0.07601117
 H                 -4.26833348    0.60013278   -1.16678009
 H                 -4.81508413    0.42640586    0.48365905
 H                 -4.59937682    2.01894071   -0.20217602

 1 7 1.0 12 1.0 13 1.0 14 1.0
 2 3 2.0 7 1.0 8 1.0
 3 4 1.0 9 1.0
 4 5 2.0 6 1.0
 5 10 1.0 11 1.0
 6
 7
 8
 9
 10
 11
 12
 13
 14

