%chk=e6_05_dmf_scan
# opt=modredundant APFd 6-311+g(2d,p) geom=connectivity scrf(smd,solvent=n,n-dimethylformamide) int(ultrafine,acc2e=12)

Z to E scan of NO2-C-C-NH bond rotation in N-methyl-(2-notrovinyl)amine

0 1
 N                 -1.46851900    0.10924600    0.00001000
 C                 -0.62482500   -0.97992300    0.00001600
 O                 -2.69361900   -0.08572300   -0.00007500
 O                 -0.98295600    1.26441100    0.00005200
 C                  0.74936400   -0.87719800    0.00003200
 H                 -1.11523400   -1.93958700    0.00000700
 H                  1.30019500   -1.81361700    0.00013900
 N                  1.47961900    0.21564500    0.00004200
 H                  0.97081300    1.09497000    0.00001700
 C                  2.92354000    0.23139800   -0.00005900
 H                  3.30240400   -0.79020600   -0.00056700
 H                  3.29422000    0.74911900    0.88778200
 H                  3.29402400    0.74992400   -0.88750500

 1 2 1.5 3 1.5 4 1.5
 2 5 2.0 6 1.0
 3
 4
 5 7 1.0 8 2.0
 6
 7
 8 9 1.0 10 1.0
 9
 10 11 1.0 12 1.0 13 1.0
 11
 12
 13

D 1 2 5 8 S 36 5.000000

