%Chk=e6_07_co
# OPT FREQ APFd 6-311+G(2d,p) Geom=Connectivity INT(Ultrafine,ACC2E=12)

CO

0 1
 C         -1.25742572    0.00000000    0.00000000
 O          0.17257428    0.00000000    0.00000000

 1 2 1.0
 2

