%chk=e6_03_indane_b_below
# FREQ APFd 6-311+G(2d,p) Geom=Connectivity Int(UltraFine,ACC2E=12)

2-deuteroindane cation (deuterium trans to cyclopentene pucker)

1 1
 C                  0.96420518   -1.41046762   -0.00222894
 C                  2.24214387   -0.69113748    0.06141660
 C                  2.18973558    0.77354635    0.04858018
 C                  1.00783972    1.44306955   -0.01710003
 C                 -0.18280829    0.69350839   -0.06422978
 C                 -0.20578607   -0.72667140   -0.06988200
 C                 -1.62534691   -1.21426226   -0.14258341
 C                 -2.43921798    0.01770361    0.29214620
 C                 -1.56621663    1.21600775   -0.11834396
 H                  0.98654725   -2.49670393    0.01014783
 H                  0.97203601    2.52704311   -0.01823176
 H                  3.13068909    1.31382106    0.09911414
 H                  2.82551739   -1.02882754    0.93842474
 H                 -1.70598166    2.12682730    0.46967861
 H                 -1.75478292    1.50498675   -1.16644442
 H                 -3.43228038    0.05016770   -0.15430757
 H                 -2.56680668    0.01767413    1.37784533
 H                 -1.85666328   -1.49239439   -1.17762874
 H                 -1.80510116   -2.09616985    0.47387244
 H(Iso=2)           2.89825859   -1.03368524   -0.76209362

 1 2 1.5 6 1.5 10 1.0
 2 3 1.5 13 1.0 20 1.0
 3 4 1.5 12 1.0
 4 5 1.5 11 1.0
 5 6 1.5 9 1.0
 6 7 1.0
 7 8 1.0 18 1.0 19 1.0
 8 9 1.0 16 1.0 17 1.0
 9 14 1.0 15 1.0
 10
 11
 12
 13
 14
 15
 16
 17
 18
 19
 20

