%Chk=e6_01_dienophile_pm6
# opt freq pm6 geom=connectivity pop=full

Acrylonitrile Opt

0 1
 C                 -2.99052534   -1.29906922    0.84855512
 C                 -1.94755413   -2.02208982    0.37311788
 C                 -0.51969251   -1.44898944    0.43910789
 N                 -3.87299548   -0.68746378    1.25090550
 H                 -2.11616743   -2.99112657   -0.04810474
 H                  0.30379678   -2.01982884    0.06373460
 H                 -0.35109547   -0.47994828    0.86033470

 1 2 2.0 4 3.0
 2 3 1.0 5 1.0
 3 6 1.0 7 1.0
 4
 5
 6
 7

