%chk=e6_06
# opt=modredundant uapfd/6-311+g(2d,p) geom=connectivity int(ultrafine,acc2e=12)
guess=(mix,always)

Dissociation of methane: relaxed scan

0 1
 C                 -0.00000000   -0.00000000   -0.00000000
 H                 -0.00000000    0.00000000    0.75000000
 H                 -0.00000000   -1.00880567   -0.35666667
 H                 -0.87365134    0.50440284   -0.35666667
 H                  0.87365134    0.50440284   -0.35666667

 1 2 1.0 3 1.0 4 1.0 5 1.0
 2
 3
 4
 5

B 1 2 S 26 0.100000

