%Chk=e6_08_ch4
# OPT FREQ APFd 6-311+G(2d,p) Geom=Connectivity INT(Ultrafine,ACC2E=12)

Methane

0 1
  C                                                 0.000000000000      0.000000000000      0.000000000000
  H                                                 0.000000000000      0.000000000000      1.070000000000
  H                                                 1.008805608473      0.000000000000     -0.356666853398
  H                                                -0.504402893503     -0.873651439032     -0.356666348429
  H                                                -0.504402893503      0.873651439032     -0.356666348429

 1 2 1.0 3 1.0 4 1.0 5 1.0
 2
 3
 4
 5

