%chk=e6_03_indane
# OPT=Tight APFd/6-311+G(2d,p) Geom=Connectivity Int(Ultrafine,acc2e=12)

Indane Opt

0 1
 C                 -0.04763900   -1.04195300    1.40019100
 C                 -0.04232300   -2.24249300    0.69576700
 C                 -0.04232300   -2.24249300   -0.69576700
 C                 -0.04763900   -1.04195300   -1.40019100
 C                 -0.04763900    0.15257900   -0.69693200
 C                 -0.04763900    0.15257900    0.69693200
 C                 -0.07093700    1.56291800    1.22003800
 C                  0.37624600    2.38839700    0.00000000
 C                 -0.07093700    1.56291800   -1.22003800
 H                 -0.04492700   -1.04415700    2.48648600
 H                 -0.04492700   -1.04415700   -2.48648600
 H                 -0.03239900   -3.18494600   -1.23421200
 H                 -0.03239900   -3.18494600    1.23421200
 H                  0.56825200    1.71009100   -2.09479400
 H                 -1.09133200    1.83252200   -1.52344700
 H                 -0.02257200    3.40523600    0.00000000
 H                  1.46835800    2.46474900    0.00000000
 H                 -1.09133200    1.83252200    1.52344700
 H                  0.56825200    1.71009100    2.09479400

 1 6 1.5 2 1.5 10 1.0
 2 3 1.5 13 1.0
 3 4 1.5 12 1.0
 4 5 1.5 11 1.0
 5 6 1.5 9 1.0
 6 7 1.0
 7 8 1.0 18 1.0 19 1.0
 8 9 1.0 16 1.0 17 1.0
 9 14 1.0 15 1.0
 10
 11
 12
 13
 14
 15
 16
 17
 18
 19

--link1--
%chk=e6_03_indane
# FREQ NMR APFd/6-311+G(2d,p) Geom=Checkpoint Int(Ultrafine,acc2e=12) Guess=Read

Indane Freq and NMR

0 1

