%chk=e6_05_dcb_z
# OPT FREQ APFd 6-311+G(2d,p) SCRF(SMD,Solvent=o-dichlorobenzene) Geom=Connectivity INT(Ultrafine,ACC2E=12)

N-Methyl-(2-nitrovinyl)amine Z Form

0 1
 N                  0.11846518   -1.47910920    0.00000000
 C                 -0.99302052   -0.62074651    0.00000000
 O                 -0.08232097   -2.69531847    0.00000000
 O                  1.26825445   -0.97903198    0.00000000
 C                 -0.88935858    0.74149176    0.00000000
 H                 -1.94396166   -1.12353594    0.00000000
 N                  0.21812180    1.48196631    0.00000000
 H                 -1.82294436    1.29493500    0.00000000
 H                  1.08630293    0.95352563    0.00000000
 C                  0.23682632    2.93129425    0.00000000
 H                 -0.78471662    3.31080996    0.00000000
 H                  0.74634071    3.31299294   -0.88837920
 H                  0.74634071    3.31299294    0.88837920

 1 2 1.0 3 1.5 4 1.5
 2 5 2.0 6 1.0
 3
 4
 5 7 1.5 8 1.0
 6
 7 9 1.0 10 1.0
 8
 9
 10 11 1.0 12 1.0 13 1.0
 11
 12
 13

