%Chk=e6_07_h2
# OPT FREQ APFd 6-311+G(2d,p) Geom=Connectivity INT(Ultrafine,ACC2E=12)

H2

0 1
 H                 -1.03716810    1.99115041    0.00000000
 H                 -1.63716810    1.99115041    0.00000000

 1 2 1.0
 2

