%Chk=e6_04_twist_scan
# opt=modredundant apfd/6-311+g(2d,p) geom=connectivity int=(ultrafine,acc2e=12)

CH2-CH-CH2 twist about one C-C bond

1 1
 C                  0.00000000    0.00000000    0.00000000
 H                  0.00000000    0.00000000    1.08388809
 C                  1.18483682    0.00000000   -0.70385725
 C                 -1.18483682    0.00000000   -0.70385725
 H                  2.14647535    0.00000000   -0.19862205
 H                 -2.14647535    0.00000000   -0.19862205
 H                  1.19319086    0.00000000   -1.79017105
 H                 -1.19319086    0.00000000   -1.79017105

 1 2 1.0 3 2.0 4 2.0
 2
 3 5 1.0 7 1.0
 4 6 1.0 8 1.0
 5
 6
 7
 8

D 2 1 3 5 S 18 10.000000

