%chk=e6_05_dcb_irc
# IRC(CalcFC,MaxPoints=40,Recorrect=Never) APFd 6-311+G(2d,p) SCRF(SMD,solvent=o-dichlorobenzene) INT(UltraFine,Acc2e=12)

E to Z transition structure for N-methyl-(2-nitrovinyl)amine in o-dichlorobenzene

 0,1
  N              -1.394710741108      0.017038776084     -0.138066008926
  C              -0.495962593328     -0.916764875037      0.188020686656
  O              -2.623730408977     -0.164887447778      0.026995173709
  O              -0.951999532779      1.111379553122     -0.626094614133
  C               0.863883642075     -0.601159294267     -0.222958875453
  H              -0.823760380904     -1.922350231884      0.402923667585
  H               1.253671125256     -0.848989024976     -1.213206978270
  N               1.694470323414     -0.031502721282      0.565338969392
  H               1.351982069610      0.204599792805      1.495803637724
  C               3.047156272288      0.369582646910      0.236528635448
  H               3.113708514675      1.457570002554      0.289050705261
  H               3.293286864557      0.028549585729     -0.766992038397
  H               3.732835602992     -0.066823803598      0.963580800997

