%Chk=e6_11_Cl
# FREQ APFd 6-311+G(2d,p) SCRF(SMD,Solvent=Acetonitrile) Int(UltraFine,Acc2E=12) 

Chloride ion

-1 1
Cl

