%Chk=e6_11_TS
# OPT(TS,CalcFC) FREQ APFd 6-311+G(2d,p) SCRF(SMD,Solvent=Acetonitrile) Int(Ultrafine,Acc2E=12) Geom=Connectivity

TS for SN2 reaction: F- + methyl chloride

-1 1
 H                 -0.00000068    1.07783223   -0.60045884
 H                 -0.93241409   -0.53736306   -0.60016518
 H                  0.93241360   -0.53736392   -0.60016280
 C                 -0.00000005    0.00101773   -0.55269242
 F                  0.00000188   -0.00214620   -2.52586600
 Cl                -0.00000165   -0.00197678    1.67943914

 1 4 1.0 5 0.0
 2 4 1.0 5 0.0
 3 4 1.0 5 0.0
 4 5 0.5 6 0.5
 5
 6

