%Chk=e6_11_F
# FREQ APFd 6-311+G(2d,p) SCRF(SMD,Solvent=Acetonitrile) Int(UltraFine,Acc2E=12) 

fluoride ion in acetonitrile

-1 1
F

