%Chk=e6_11_CH3Cl
# OPT FREQ APFd 6-311+G(2d,p) SCRF(SMD,Solvent=Acetonitrile) Int(UltraFine,Acc2E=12) Geom=Connectivity

methyl chloride

0 1
 C                 -0.50231837   -0.35548697    0.00000001
 H                 -0.14566412   -1.36429704   -0.00000007
 H                 -0.14564546    0.14891156   -0.87365127
 H                 -1.57231837   -0.35547379   -0.00000002
 Cl                 0.08435848    0.47417763    1.43703409

 1 2 1.0 3 1.0 4 1.0 5 1.0
 2
 3
 4
 5

