%Chk=e6_11_CH3F
# OPT FREQ APFd 6-311+G(2d,p) SCRF(SMD,Solvent=Acetonitrile) Int(UltraFine,Acc2E=12) Geom=Connectivity

methyl fluoride

0 1
 C                 -0.61728395    0.83774239   -0.00000001
 H                 -0.26062970   -0.17106767    0.00000003
 H                 -0.26061107    1.34214088    0.87365131
 H                 -1.68728395    0.83775556    0.00000001
 F                 -0.16727614    1.47413291   -1.10227043

 1 2 1.0 3 1.0 4 1.0 5 1.0
 2
 3
 4
 5

