%Chk=x6_09_ethyl_acetate
# OPT FREQ APFd 6-31+G(d) SCRF(SMD,Solvent=DMSO) Geom=Connectivity

Ethyl acetate in DMSO (small basis set pre-opt)

0 1
 C                 -2.34152000    0.00984000    0.00000000
 C                 -0.93515600   -0.54346800    0.00000000
 O                 -0.61865200   -1.74518900    0.00000000
 O                  0.00000000    0.47698200    0.00000000
 C                  1.43425200    0.08868000    0.00000000
 C                  2.24248400    1.38119700    0.00000000
 H                  2.01731400    1.98157600    0.88858200
 H                 -3.05944800   -0.81262300    0.00000000
 H                 -2.49643200    0.63952800   -0.88348900
 H                 -2.49643200    0.63952800    0.88348900
 H                  1.62553800   -0.52530800   -0.88788000
 H                  1.62553800   -0.52530800    0.88788000
 H                  3.31546800    1.14919200    0.00000000
 H                  2.01731400    1.98157600   -0.88858200

 1 2 1.0 8 1.0 9 1.0 10 1.0
 2 3 2.0 4 1.0
 3
 4 5 1.0
 5 6 1.0 11 1.0 12 1.0
 6 7 1.0 13 1.0 14 1.0
 7
 8
 9
 10
 11
 12
 13
 14

--link1--
%Chk=x6_09_ethyl_acetate
# OPT=ReadFC FREQ APFd 6-311+G(2d,p) SCRF(SMD,Solvent=DMSO) Geom=Checkpoint Guess=Read Int(UltraFine,Acc2E=12)

Ethyl acetate in DMSO

0 1

