%chk=x6_02_NMe2
# OPT FREQ APFd 6-311+g(2d,p) SCRF(SMD,Solvent=Chloroform) Geom=Connectivity Int(Ultrafine,Acc2E=12) Temp=140

4'-(dimethylamino)-acetophenone

0 1
 C          1.47502788    0.07435947   -0.00794391
 C          0.78193722   -1.14133607   -0.00760337
 C         -0.59677278   -1.18988019   -0.02017882
 C         -1.36456642   -0.00290667   -0.03906501
 C         -0.66074399    1.22613971   -0.03094047
 C          0.71478267    1.25076975   -0.01882462
 C          2.94386536    0.16133176    0.00891358
 C          3.74724081   -1.11450892    0.02791738
 H          1.32737301   -2.07913995    0.00687176
 H         -1.08631041   -2.15524565   -0.01130868
 H         -1.20156698    2.16392549   -0.03591016
 H          1.23671184    2.20214853   -0.01493829
 O          3.51483928    1.24391029    0.00806037
 H          3.50591655   -1.71402562    0.91085651
 H          3.52753074   -1.72687726   -0.85180694
 H          4.80928521   -0.87088242    0.03920508
 N         -2.72404615   -0.03803660   -0.06577727
 C         -3.42204417   -1.30098265    0.01992676
 H         -4.48860916   -1.12601805   -0.10779869
 H         -3.10001294   -1.98428650   -0.77089792
 H         -3.26693797   -1.79542489    0.98740950
 C         -3.48689763    1.18407985    0.06204767
 H         -3.27346370    1.87619884   -0.75825531
 H         -4.54773164    0.94429435    0.02758229
 H         -3.28354941    1.69791080    1.00945360

 1 2 1.5 6 1.5 7 1.0
 2 3 2.0 9 1.0
 3 4 1.5 10 1.0
 4 5 1.5 17 1.5
 5 6 2.0 11 1.0
 6 12 1.0
 7 8 1.0 13 2.0
 8 14 1.0 15 1.0 16 1.0
 9
 10
 11
 12
 13
 14
 15
 16
 17 18 1.0 22 1.0
 18 19 1.0 20 1.0 21 1.0
 19
 20
 21
 22 23 1.0 24 1.0 25 1.0
 23
 24
 25

