%Chk=x6_05_AcetylF
# opt freq APFD/6-311+g(2d,p) geom=connectivity Int=(UltraFine,Acc2E=12)

Acetyl Fluoride Opt Freq

0 1
 C                  0.00000000    0.00000000    0.00000000
 O                  0.00000000    0.00000000    1.16845600
 F                  1.14167604    0.00000000   -0.67438181
 C                 -1.17031026   -0.00000000   -0.93180215
 H                 -2.08863152   -0.00000000   -0.36513792
 H                 -1.12370722    0.87537921   -1.56909002
 H                 -1.12370722   -0.87537921   -1.56909002

 1 2 2.0 3 1.0 4 1.0
 2
 3
 4 5 1.0 6 1.0 7 1.0
 5
 6
 7

