%chk=x6_08_irc+1h2o_smd
# irc=(maxpoints=40,recorrect=never,calcfc,step=20) apfd/6-311+g(2d,p)
scrf=(solvent=water,smd) geom=connectivity

IRC from TS: 2-pyridone to 2-hydroxypyridine with 1 explicit water

0 1
 C                 -0.24051400    0.67810100   -0.00832400
 C                  1.00885300    1.30742600    0.01250600
 C                  2.13865500    0.51901200    0.01929900
 C                  2.03701200   -0.87792100    0.00668100
 C                  0.78326300   -1.43607400   -0.01352700
 N                 -0.31512800   -0.66774300   -0.02163200
 H                  3.11720000    0.98781200    0.03454400
 H                  1.05771200    2.38934500    0.02224000
 H                  2.91593900   -1.50958000    0.01181200
 H                  0.61458900   -2.50621000   -0.02476800
 O                 -1.37825400    1.34280300   -0.01656000
 H                 -2.16208300    0.57557100   -0.02193600
 H                 -3.13672500   -0.85305200    0.79109400
 O                 -2.75849400   -0.66610400   -0.07522000
 H                 -1.47035900   -0.96655600   -0.02713000

 1 2 1.5 6 1.5 11 1.5
 2 3 2.0 8 1.0
 3 4 1.5 7 1.0
 4 5 2.0 9 1.0
 5 6 1.5 10 1.0
 6
 7
 8
 9
 10
 11
 12
 13 14 1.0
 14
 15

