%chk=x6_04_SiH2-H-SiH+
# OPT FREQ APFd 6-311+G(2d,p) Geom=Connectivity Int(Ultrafine,Acc2E=12)

[SiH2...H...SiH]+ hydrogen-bridged structure

1 2
 Si                 1.05762500   -0.07299500    0.21856600
 Si                -1.11000500    0.12435500   -0.28519700
 H                 -0.00544400   -1.28895000    0.26523300
 H                 -2.04518500   -0.01011300    0.86894800
 H                  1.49946900    0.19529100    1.60084200
 H                  1.99184200   -0.33793100   -0.88496100

 1 2 1.0 5 1.0 6 1.0
 2 4 1.0 3 1.0
 3
 4
 5
 6

