%chk=x6_07_SN2_TS
# OPT(QST3,calcFC) FREQ APFd 6-31+G(d) SCRF(Solvent=water) Geom=Connectivity

TS for the SN2 mechanism: hydrolysis of methyl acetate with one water explicit

-1 1
 C                 -1.82986813    0.09089694   -0.08291921
 O                 -1.58977492    1.03548294   -0.87896135
 O                 -0.91108849   -0.36805435    0.64425219
 C                 -3.24806918   -0.50341129    0.00136315
 H                 -3.96682262    0.25474025   -0.22993694
 H                 -3.34000975   -1.30748676   -0.69857225
 H                 -3.42274863   -0.87041581    0.99115847
 C                  0.40581192    0.18380487    0.56599169
 H                  0.49775111    0.98787946    1.26592829
 H                  1.12456604   -0.57434620    0.79729122
 H                  0.58049165    0.55081096   -0.42380299
 O                  2.81036384    0.79121010    0.34398048
 H                  2.82625084    1.63974330   -0.10472768
 O                  4.00820645   -0.82706950   -0.96229063
 H                  3.52906931   -0.17975797   -0.43978189
 H                  3.99231805   -1.67560350   -0.51358403

 1 2 2.0 3 2.0 4 1.0
 2
 3 8 1.0
 4 5 1.0 6 1.0 7 1.0
 5
 6
 7
 8 9 1.0 10 1.0 11 1.0
 9
 10
 11
 12 13 1.0 15 0.5
 13
 14 16 1.0 15 1.0
 15
 16

TS for the SN2 mechanism: hydrolysis of methyl acetate with one water explicit

-1 1
 C                 -2.44396902   -0.04404133   -0.05316246
 O                 -2.11921583    0.87989297   -0.84338479
 O                 -1.57203569   -0.58348094    0.67643177
 C                 -3.90844553   -0.51457679    0.02103278
 H                 -4.55809402    0.30357469   -0.21023547
 H                 -4.06532545   -1.30468569   -0.68325169
 H                 -4.11944301   -0.86954984    1.00813672
 C                  1.04062288    0.23547239    0.41985700
 H                  0.44756160    0.90724355    1.00458071
 H                  0.90156714   -0.76432387    0.77478084
 H                  0.74054423    0.29492864   -0.60548087
 O                  2.42009937    0.59440085    0.53437771
 H                  2.54485966    1.49141432    0.21594137
 O                  3.75033144   -0.91237491   -0.77715172
 H                  3.21823792   -0.30966501   -0.25254018
 H                  3.62559774   -1.80938450   -0.45869405

 1 2 2.0 3 2.0 4 1.0
 2
 3
 4 5 1.0 6 1.0 7 1.0
 5
 6
 7
 8 9 1.0 10 1.0 11 1.0 12 1.0
 9
 10
 11
 12 13 1.0 15 0.5
 13
 14 16 1.0 15 1.0
 15
 16

TS for the SN2 mechanism: hydrolysis of methyl acetate with one water explicit

-1 1
 C                 -2.19659889    0.03399685   -0.07595707
 O                 -1.87238471    0.95663654   -0.86646409
 O                 -1.32530538   -0.50468271    0.65493266
 C                 -3.66078600   -0.43690963   -0.00409226
 H                 -4.31197613    0.37973421   -0.23775909
 H                 -3.81447272   -1.22874677   -0.70724763
 H                 -3.87310097   -0.79001993    0.98207364
 C                  0.71367335    0.15095753    0.55752479
 H                  0.49269388    1.01364782    1.15291835
 H                  1.00961146   -0.74140115    1.07634439
 H                  0.63476878    0.20856453   -0.50713056
 O                  2.77522190    0.71981505    0.38664398
 H                  2.83125681    1.58246280   -0.03261141
 O                  3.94797990   -0.89697285   -0.94859002
 H                  3.48138825   -0.24573783   -0.41241098
 H                  3.91452346   -1.74947048   -0.50919272

 1 2 2.0 3 2.0 4 1.0
 2
 3 8 0.5
 4 5 1.0 6 1.0 7 1.0
 5
 6
 7
 8 9 1.0 10 1.0 11 1.0 12 0.5
 9
 10
 11
 12 13 1.0 15 0.5
 13
 14 16 1.0 15 1.0
 15
 16

--link1--
%chk=x6_07_SN2_TS
# OPT(TS,RCFC) FREQ APFd 6-311+G(2d,p) SCRF(Solvent=water) Geom=Checkpoint Guess=Read INT(Grid=UltraFine,Acc2E=12)

TS for the SN2 mechanism: hydrolysis of methyl acetate with one water explicit

-1 1

--link1--
%chk=x6_07_SN2_TS
# OPT(RCFC) APFd/6-311+G(2d,p) SCRF(SMD,Solvent=water) Geom=(Checkpoint,ModRedundant) Guess=Read INT(Grid=UltraFine,Acc2E=12)

TS for the SN2 mechanism: hydrolysis of methyl acetate with one water explicit

-1 1

B 3 8 F
B 8 12 F

--Link1--
%chk=x6_07_SN2_TS
# OPT(TS,CalcFC) FREQ APFd/6-311+G(2d,p) SCRF(SMD,Solvent=water) Geom=(Checkpoint,ModRedundant) Guess=Read INT(Grid=UltraFine,Acc2E=12)

TS for the SN2 mechanism: hydrolysis of methyl acetate with one water explicit

-1 1

B 3 8 A
B 8 12 A

