%chk=x6_08_py_0wat_qb3_gas
# CBS-QB3 geom=connectivity

2-pyridone

0 1
 N                 -1.13520400    0.23945800    0.00000000
 C                  0.00000000    1.06917900    0.00000000
 C                  1.24425600    0.32014100    0.00000000
 C                  1.26495700   -1.05190300    0.00000000
 C                  0.05646200   -1.80920900    0.00000000
 C                 -1.12990100   -1.12688400    0.00000000
 O                 -0.12352700    2.29284500    0.00000000
 H                 -2.01701400    0.74058800    0.00000000
 H                  2.15792700    0.90506500    0.00000000
 H                  2.22052400   -1.57049400    0.00000000
 H                  0.05975700   -2.89197000    0.00000000
 H                 -2.10119300   -1.61011000    0.00000000

 1 2 1.0 6 1.5 8 1.0
 2 3 1.0 7 2.0
 3 4 2.0 9 1.0
 4 5 1.5 10 1.0
 5 6 2.0 11 1.0
 6 12 1.0
 7
 8
 9
 10
 11
 12

