%chk=x6_04_elimIRC
# IRC(CalcFC,MaxPoints=40,Step=20,Recorrect=Never,phase=(1,2,3)) APFd 6-311+G(2d,p) Geom=Connectivity Int(Ultrafine,Acc2E=12)

[H2Si...H...SiH]+ -> Si2H2+ + H2: H2 elimination IRC

1 2
 Si                 0.01837438   -0.00001164   -0.00769411
 Si                 0.00320907    0.05784280    2.30236685
 H                  1.41809275   -0.07547083    1.35751673
 H                  1.49120528   -0.53929043    2.32164400
 H                  0.67137487   -1.04365137   -0.82590654
 H                 -0.80423114    0.99173608   -0.72596585

 1 2 1.0 3 0.5 5 1.0 6 1.0
 2 3 0.5 4 0.5
 3 4 0.5
 4
 5
 6

