%chk=x6_04_elimTS
# OPT(TS,CalcFC) FREQ APFd 6-311+G(2d,p) Geom=Connectivity Int(Ultrafine,Acc2E=12)

[H2Si...H...SiH]+ -> Si2H2+ + H2: H2 elimination TS

1 2
 Si                 0.00000000    0.00000000    0.00000000
 Si                 0.00000000    0.00000000    2.29398000
 H                  1.43263644    0.00000000    1.38792218
 H                  1.49160838   -0.54711922    2.26969738
 H                  0.63432593   -1.05901714   -0.78262685
 H                 -0.76054556    0.99729097   -0.74701165

 1 2 1.0 5 1.0 6 1.0 3 0.5
 2 3 0.5 4 0.5
 3 4 0.5
 4
 5
 6

