%chk=x6_06_H2
# OPT FREQ APFd 6-311+G(2d,p) Int(Ultrafine,Acc2E=12)

H2

0 1
 H                  0.00000000    0.00000000    0.37299500
 H                  0.00000000    0.00000000   -0.37299500

