%chk=x6_08_ts+1h2o_qb3_smd
# OPT(TS,CalcFC) CBS-QB3 SCRF(SMD,Solvent=Water) geom=connectivity

TS: 2-pyridone to 2-hydroxypyridine with 1 explicit water

0 1
 C                 -0.24051044    0.67810292   -0.00825427
 C                  1.00887102    1.30742221    0.01244091
 C                  2.13867396    0.51901303    0.01919219
 C                  2.03703602   -0.87792138    0.00665941
 C                  0.78328522   -1.43607651   -0.01343311
 N                 -0.31511024   -0.66775042   -0.02149937
 H                  3.11721901    0.98781709    0.03434403
 H                  1.05773124    2.38934234    0.02212204
 H                  2.91596707   -1.50957727    0.01175805
 H                  0.61461197   -2.50621351   -0.02462327
 O                 -1.37824099    1.34278019   -0.01644609
 H                 -2.16218394    0.57541851   -0.02134810
 H                 -3.13744944   -0.85345447    0.79047572
 O                 -2.75847801   -0.66598950   -0.07540401
 H                 -1.47050694   -0.96664696   -0.02706285

 1 2 1.5 6 1.5 11 1.5
 2 3 2.0 8 1.0
 3 4 1.5 7 1.0
 4 5 2.0 9 1.0
 5 6 1.5 10 1.0
 6 15 0.5
 7
 8
 9
 10
 11 12 0.5
 12 14 0.5
 13 14 1.0
 14 15 0.5
 15

