%Chk=x6_06_HF
# opt freq APFD/6-311+g(2d,p) geom=connectivity Int=(UltraFine,Acc2E=12)

HF Opt Freq

0 1
 F                 -3.49999978    0.99999999    0.00000000
 H                 -4.37999978    0.99999999    0.00000000

 1 2 1.0
 2

