%chk=x6_02_H_TS
# OPT(TS,CalcFC) FREQ APFd/6-31g* SCRF(Solvent=Chloroform) Geom=Connectivity Int(Ultrafine,Acc2E=12) Temp=140

acetophenone O-C(CH3)-C1-C2 rotational TS

0 1
 C          0.07461711   -0.20737100    0.00000000
 C          0.03766113    0.48599728    1.20543528
 C         -0.03617119    1.87353601    1.20410181
 C         -0.07866128    2.56907336    0.00000000
 C         -0.03617119    1.87353601   -1.20410181
 C          0.03766113    0.48599728   -1.20543528
 C          0.17716522   -1.70423972    0.00000000
 C         -1.11561663   -2.45977143    0.00000000
 H          0.07322271   -0.05891623    2.14423705
 H         -0.05898689    2.41290462    2.14594779
 H         -0.05898689    2.41290462   -2.14594779
 H          0.07322271   -0.05891623   -2.14423705
 O          1.26038507   -2.24798415    0.00000000
 H         -1.69822320   -2.17078988    0.89109378
 H         -1.69822320   -2.17078988   -0.89109378
 H         -0.94176721   -3.53610156    0.00000000
 H         -0.13624433    3.65303104    0.00000000

 1 2 1.5 6 1.5 7 1.0
 2 3 1.5 9 1.0
 3 4 1.5 10 1.0
 4 5 1.5 17 1.0
 5 6 1.5 11 1.0
 6 12 1.0
 7 8 1.0 13 2.0
 8 14 1.0 15 1.0 16 1.0
 9
 10
 11
 12
 13
 14
 15
 16
 17

--Link1--
%chk=x6_02_H_TS
# OPT(TS,RCFC) FREQ APFd 6-311+g(2d,p) SCRF(SMD,Solvent=Chloroform) Geom=(check) Int(Ultrafine,Acc2E=12) Temp=140
guess=read

acetophenone O-C(CH3)-C1-C2 rotational TS

0 1

