%chk=x6_04_SiH4
# OPT FREQ APFd 6-311+G(2d,p) Geom=Connectivity Int(Ultrafine,Acc2E=12)

SiH4

0 1
 Si                -1.17256634    0.26548672    0.00000000
 H                 -0.68258316   -1.12044852    0.00000000
 H                 -0.68255786    0.95844498    1.20025020
 H                 -0.68255786    0.95844498   -1.20025020
 H                 -2.64256634    0.26550483    0.00000000

 1 2 1.0 3 1.0 4 1.0 5 1.0
 2
 3
 4
 5

