%chk=x6_02_CF3_TS
# OPT(CalcFC) FREQ APFd 6-31g* SCRF(Solvent=Chloroform) Geom=(Connectivity,modred) Int(Ultrafine,Acc2E=12) Temp=140

4'-(trifluoromethyl)-acetophenone O-C(CH3)-C1-C2 rotational TS

0 1
 C         -1.70709148   -0.00469391   -0.09180586
 C         -1.02332432   -1.21481703   -0.07644948
 C          0.36451359   -1.22803270   -0.04555906
 C          1.05834304   -0.02719326   -0.02564180
 C          0.38034513    1.18711475   -0.03648502
 C         -1.00415133    1.19742061   -0.06765996
 C         -3.20797013    0.00811270   -0.15058949
 C         -3.92421594    0.00105107    1.16323232
 H         -1.57296477   -2.15049859   -0.09514919
 H          0.90052642   -2.16973511   -0.03911451
 H          0.93270220    2.12081616   -0.02299150
 H         -1.54016556    2.14104460   -0.07996705
 O         -3.77495074    0.02322553   -1.22062591
 H         -3.62699904   -0.88410547    1.73575362
 H         -3.61230028    0.86940100    1.75341032
 H         -5.00473961    0.01159335    1.01932157
 C          2.55624134   -0.00490927    0.02705749
 F          3.08543660    0.75154963   -0.95685400
 F          3.10010507   -1.22716822   -0.08403529
 F          3.01083691    0.51910327    1.18723920

 1 2 1.5 6 1.5 7 1.0
 2 3 1.5 9 1.0
 3 4 1.5 10 1.0
 4 5 1.5 17 1.0
 5 6 2.0 11 1.0
 6 12 1.0
 7 8 1.0 13 2.0
 8 14 1.0 15 1.0 16 1.0
 9
 10
 11
 12
 13
 14
 15
 16
 17 18 1.0 19 1.0 20 1.0
 18
 19
 20

D 2 1 7 13 F
D 6 1 7 13 F

--Link1--
%chk=x6_02_CF3_TS
# OPT(RCFC) FREQ APFd 6-311+g(2d,p) SCRF(Solvent=Chloroform) Geom=(check) Int(Ultrafine,Acc2E=12) Temp=140
guess=read

4'-(trifluoromethyl)-acetophenone O-C(CH3)-C1-C2 rotational TS

0 1

--Link1--
%chk=x6_02_CF3_TS
# OPT(TS,RCFC) FREQ APFd 6-311+g(2d,p) SCRF(SMD,Solvent=Chloroform) Geom=(check,modred) Int(Ultrafine,Acc2E=12) Temp=140
guess=read

4'-(trifluoromethyl)-acetophenone O-C(CH3)-C1-C2 rotational TS

0 1

D 2 1 7 13 A
D 6 1 7 13 A

