%chk=x6_07_BAC2_TS1
# OPT=QST3 FREQ APFd/6-31+G(d) SCRF(Solvent=water) Geom=Connectivity

TS1 for the BAC2 mechanism: hydrolysis of methyl acetate with one water explicit

-1 1
 C                  0.26090681   -0.25261452    0.01262090
 O                  0.20385158    0.27749556    1.15248868
 O                 -0.83264599   -0.11013096   -0.89773107
 C                 -2.05279640    0.01082382   -0.16186225
 H                 -2.87104919    0.11743739   -0.84303470
 H                 -2.00275035    0.87076878    0.47287396
 H                 -2.19756933   -0.86523009    0.43518913
 C                  1.50840189   -1.05479448   -0.40194314
 H                  1.64322716   -0.98254793   -1.46095333
 H                  1.37980005   -2.08109680   -0.12796300
 H                  2.36894454   -0.65809750    0.09504566
 O                  1.40235805    2.19380007   -0.26304664
 H                  0.90299509    2.82256074    0.26316307
 O                  3.63165922    2.01424775    0.60757224
 H                  4.05944775    2.87290256    0.57139376
 H                  2.73993908    2.08606768    0.25932363

 1 2 2.0 3 1.0 8 1.0
 2
 3 4 1.0
 4 5 1.0 6 1.0 7 1.0
 5
 6
 7
 8 9 1.0 10 1.0 11 1.0
 9
 10
 11
 12 13 1.0 16 0.5
 13
 14 15 1.0 16 1.0
 15
 16

TS1 for the BAC2 mechanism: hydrolysis of methyl acetate with one water explicit

-1 1
 C                  0.39328089   -0.20678520    0.27062859
 O                 -0.03459732   -0.58643191    1.39150398
 O                 -0.62372147   -0.39569044   -0.71674625
 C                 -1.77903723    0.36941902   -0.36346731
 H                 -2.54002286    0.22809808   -1.10227950
 H                 -1.51868003    1.40605917   -0.31337399
 H                 -2.14287425    0.04658931    0.58959572
 C                  1.63747088   -1.03072223   -0.10980378
 H                  2.00129211   -0.70791517   -1.06286759
 H                  1.37712995   -2.06736107   -0.15987353
 H                  2.39844842   -0.88936531    0.62900458
 O                  0.74119614    1.17862634    0.33754020
 H                  0.57046882    1.50904480    1.22257345
 O                  3.06948868    1.44454815   -0.18043548
 H                  3.30315820    2.37460429   -0.13570231
 H                  2.13817377    1.33827263    0.02676430

 1 2 2.0 3 1.0 8 1.0 12 1.0
 2
 3 4 1.0
 4 5 1.0 6 1.0 7 1.0
 5
 6
 7
 8 9 1.0 10 1.0 11 1.0
 9
 10
 11
 12 13 1.0 16 0.5
 13
 14 15 1.0 16 1.0
 15
 16

TS1 for the BAC2 mechanism: hydrolysis of methyl acetate with one water explicit

-1 1
 C                  0.25772904   -0.41010696    0.19340785
 O                  0.07482942   -0.35440149    1.40800456
 O                 -0.77007345   -0.34955996   -0.69227162
 C                 -2.00795375    0.11314457   -0.16837310
 H                 -2.70935087    0.10522476   -1.00409812
 H                 -1.89660231    1.13111071    0.21849450
 H                 -2.36900571   -0.54133423    0.63119084
 C                  1.48270005   -0.98841933   -0.46170264
 H                  1.61208384   -0.59776794   -1.47175325
 H                  1.37052390   -2.08058947   -0.51545598
 H                  2.36344063   -0.75528740    0.13728782
 O                  1.02488360    1.75167541   -0.21221653
 H                  0.59694200    2.06922213    0.59621025
 O                  3.39892722    1.33924234    0.75525401
 H                  4.01383680    2.04898427    0.55587344
 H                  2.54826430    1.52985306    0.35320904

 1 2 2.0 3 1.0 8 1.0 12 0.0
 2
 3 4 1.0
 4 5 1.0 6 1.0 7 1.0
 5
 6
 7
 8 9 1.0 10 1.0 11 1.0
 9
 10
 11
 12 13 1.0 16 0.5
 13
 14 15 1.0 16 1.0
 15
 16

--link1--
%chk=x6_07_BAC2_TS1
# OPT(TS,RCFC) FREQ APFd 6-311+G(2d,p) SCRF(Solvent=water) Geom=Checkpoint Guess=Read INT(Grid=UltraFine,Acc2E=12)

TS1 for the BAC2 mechanism: hydrolysis of methyl acetate with one water explicit

-1 1

--link1--
%chk=x6_07_BAC2_TS1
# OPT(TS,RCFC) FREQ APFd/6-311+G(2d,p) SCRF(SMD,Solvent=water) Geom=Checkpoint Guess=Read INT(Grid=UltraFine,Acc2E=12)

TS1 for the BAC2 mechanism: hydrolysis of methyl acetate with one water explicit

-1 1

