%Chk=x6_06_SiF4
# opt freq APFD/6-311+g(2d,p) geom=connectivity Int=(UltraFine,Acc2E=12)

SiF4 Opt Freq

0 1
 Si                -2.41666648    0.56249985   -0.00000000
 F                 -1.83332301    1.38745059    1.42886902
 F                 -4.16666648    0.56252137    0.00000000
 F                 -1.83335344   -1.08742315    0.00000000
 F                 -1.83332301    1.38745059   -1.42886902

 1 2 1.0 3 1.0 4 1.0 5 1.0
 2
 3
 4
 5

