%chk=x6_02_F_TS
# OPT(TS,CalcFC) FREQ APFd/6-31g* SCRF(Solvent=Chloroform) Geom=Connectivity Int(Ultrafine,Acc2E=12) Temp=140

4'-fluoroacetophenone O-C(CH3)-C1-C2 rotational TS

0 1
 C          0.08016962    0.64217298    0.00000000
 C          0.05489896   -0.05334187   -1.20374431
 C          0.00077141   -1.44095138   -1.21260120
 C         -0.03244834   -2.10501773    0.00000000
 C          0.00077141   -1.44095138    1.21260120
 C          0.05489896   -0.05334187    1.20374431
 C          0.16427066    2.14111029    0.00000000
 C         -1.13723838    2.88080315    0.00000000
 H          0.08407265    0.48754448   -2.14453596
 H         -0.01387046   -2.00347952   -2.13960198
 F         -0.08663172   -3.45478468    0.00000000
 H         -0.01387046   -2.00347952    2.13960198
 H          0.08407265    0.48754448    2.14453596
 O          1.24093073    2.69672849    0.00000000
 H         -1.71414331    2.58455870   -0.89591063
 H         -1.71414331    2.58455870    0.89591063
 H         -0.97644391    3.95909375    0.00000000

 1 2 1.5 6 1.5 7 1.0
 2 3 1.5 9 1.0
 3 4 2.0 10 1.0
 4 5 2.0 11 1.0
 5 6 1.5 12 1.0
 6 13 1.0
 7 8 1.0 14 2.0
 8 15 1.0 16 1.0 17 1.0
 9
 10
 11
 12
 13
 14
 15
 16
 17

--Link1--
%chk=x6_02_F_TS
# OPT(TS,RCFC) FREQ APFd 6-311+g(2d,p) SCRF(SMD,Solvent=Chloroform) Geom=(check) Int(Ultrafine,Acc2E=12) Temp=140
guess=read

4'-fluoroacetophenone O-C(CH3)-C1-C2 rotational TS

0 1

