%chk=x6_09_TS_Br.chk
# opt=(calcfc,qst3) freq apfd/6-311+g(2d,p) scrf=(smd,solvent=dmso)
geom=connectivity int=(ultrafine,acc2e=12)

Ethyl bromide + acetate --> ethyl acetate + bromide TS in DMSO

-1 1
 C                  0.28810200    0.34994900   -0.31973400
 O                  1.82070200    0.35956700   -0.76305400
 C                  2.65914100   -0.26008400    0.04974300
 C                  4.12395700   -0.16947300   -0.34287400
 H                  4.52762100    0.77577100    0.02520200
 H                  4.66253300   -0.98341900    0.14094200
 H                  4.28106600   -0.20786900   -1.42109200
 O                  2.32886400   -0.84437700    1.06000800
 H                 -0.23248500    0.36824500   -1.33682500
 C                 -0.02849800    1.54828000    0.58481500
 H                 -0.38948100    1.23075800    1.57002900
 H                  0.90418700    2.15289700    0.72855300
 H                 -0.79121200    2.20173000    0.14331700
 H                  0.10700900   -0.68108500    0.16089900
 Br                -2.52541400   -0.27776200   -0.06580400

 1 9 1.0 10 1.0 14 1.0
 2 3 2.0
 3 4 1.0 8 2.0
 4 5 1.0 6 1.0 7 1.0
 5
 6
 7
 8
 9
 10 11 1.0 12 1.0 13 1.0
 11
 12
 13
 14
 15

Ethyl bromide + acetate --> ethyl acetate + bromide TS in DMSO

-1 1
 C                 -0.47689800    0.27854900   -0.18713400
 O                  2.03490200    0.33916700   -0.85485400
 C                  2.72034100   -0.24988400   -0.01145700
 C                  4.22595700   -0.21027300   -0.29187400
 H                  4.61942100    0.75537100    0.05580200
 H                  4.78493300   -1.00381900    0.21234200
 H                  4.40346600   -0.25886900   -1.37009200
 O                  2.32886400   -0.84437700    1.03960800
 H                 -0.26308500    0.38864500   -1.29602500
 C                 -0.17129800    1.53808000    0.60521500
 H                 -0.38948100    1.39395800    1.67202900
 H                  0.90418700    1.79589700    0.49395300
 H                 -0.78101200    2.38533000    0.25551700
 H                  0.14780900   -0.60968500    0.19149900
 Br                -2.46421400   -0.25736200   -0.06580400

 1 9 1.0 10 1.0 14 1.0
 2 3 2.0
 3 4 1.0 8 2.0
 4 5 1.0 6 1.0 7 1.0
 5
 6
 7
 8
 9
 10 11 1.0 12 1.0 13 1.0
 11
 12
 13
 14
 15

Ethyl bromide + acetate --> ethyl acetate + bromide TS in DMSO

-1 1
 C                 -0.10939800    0.31284900   -0.25083400
 O                  2.01598371    0.35045287   -0.83378870
 C                  2.69094100   -0.25478400    0.01794300
 C                  4.17695700   -0.19067300   -0.31637400
 H                  4.57532100    0.76517100    0.04110200
 H                  4.72613300   -0.99401900    0.17804200
 H                  4.34466600   -0.23436900   -1.39459200
 O                  2.32886400   -0.84437700    1.04940800
 H                 -0.24838500    0.37884500   -1.31562500
 C                 -0.10269800    1.54298000    0.59541500
 H                 -0.38948100    1.31555800    1.62302900
 H                  0.90418700    1.96739700    0.60665300
 H                 -0.78591200    2.29713000    0.20161700
 H                  0.12820900   -0.64398500    0.17679900
 Br                -2.65181932   -0.30564879   -0.05352628

 1 9 1.0 10 1.0 14 1.0
 2 3 2.0
 3 4 1.0 8 2.0
 4 5 1.0 6 1.0 7 1.0
 5
 6
 7
 8
 9
 10 11 1.0 12 1.0 13 1.0
 11
 12
 13
 14
 15

