%chk=x6_04_Si2H2+
# OPT FREQ APFd 6-311+G(2d,p) Geom=Connectivity Int(Ultrafine,Acc2E=12)

Si2H2+ Opt Freq

1 2
 Si                -2.20470303   -0.14917533    0.00000000
 H                 -1.46934728   -1.42202721    0.00000000
 H                 -3.67470298   -0.14958615    0.00000000
 Si                -1.03526942    1.87765101    0.00000000

 1 2 1.0 3 1.0 4 1.0
 2
 3
 4

