%Chk=x6_06_SiF2H2
# opt freq APFD/6-311+g(2d,p) geom=connectivity Int=(UltraFine,Acc2E=12)

SiF2H2 Opt Freq

0 1
 Si                -2.31249982   -0.60416679    0.00000001
 H                 -1.82249129    0.08879187   -1.20024994
 F                 -1.72915636    0.22078391    1.42886906
 F                 -1.72918677   -2.25408978   -0.00000003
 H                 -3.78249982   -0.60414872   -0.00000001

 1 2 1.0 3 1.0 4 1.0 5 1.0
 2
 3
 4
 5

