%chk=x6_05_Acetaldehyde
# OPT FREQ APFd 6-311+G(2d,p) Geom=Connectivity Int(Ultrafine,Acc2E=12)

Acetaldehyde

0 1
 C                  1.16324441   -0.14264689    0.00000000
 C                 -0.24131576    0.39629508    0.00000000
 H                  1.14939981   -1.22420851    0.00000000
 H                  1.69672118    0.21987359    0.87462200
 H                  1.69672118    0.21987359   -0.87462200
 O                 -1.21876883   -0.27826110    0.00000000
 H                 -0.32426343    1.48866100    0.00000000

 1 2 1.0 3 1.0 4 1.0 5 1.0
 2 6 2.0 7 1.0
 3
 4
 5
 6
 7

