%chk=x6_02_CF3
# OPT FREQ APFd 6-311+g(2d,p) SCRF(SMD,Solvent=Chloroform) Geom=Connectivity Int(Ultrafine,Acc2E=12) Temp=140

4'-(trifluoromethyl)-acetophenone

0 1
 C         -1.70881648    0.06441783    0.00000000
 C         -1.05988986   -1.16862747    0.00000000
 C          0.32689628   -1.23344064    0.00000000
 C          1.06208748   -0.05850336    0.00000000
 C          0.42878418    1.18171575    0.00000000
 C         -0.95149788    1.23831892    0.00000000
 C         -3.20077038    0.18000984    0.00000000
 C         -4.02426732   -1.07476893    0.00000000
 H         -1.62790073   -2.09144568    0.00000000
 H          0.82919609   -2.19333011    0.00000000
 H          1.01562628    2.09407185    0.00000000
 H         -1.46618678    2.19236734    0.00000000
 O         -3.72517349    1.27656270    0.00000000
 H         -3.80357911   -1.68330141   -0.87564721
 H         -3.80357911   -1.68330141    0.87564721
 H         -5.08178073   -0.81395213    0.00000000
 C          2.56256726   -0.09076878    0.00000000
 F          3.08915149    0.65083065   -0.99470970
 F          3.05825617   -1.33096452    0.00000000
 F          3.08915149    0.65083065    0.99470970

 1 2 1.5 6 1.5 7 1.0
 2 3 1.5 9 1.0
 3 4 2.0 10 1.0
 4 5 1.5 17 1.0
 5 6 2.0 11 1.0
 6 12 1.0
 7 8 1.0 13 2.0
 8 14 1.0 15 1.0 16 1.0
 9
 10
 11
 12
 13
 14
 15
 16
 17 18 1.0 19 1.0 20 1.0
 18
 19
 20

