%chk=x6_02_NMe2_TS
# OPT(TS,CalcFC) FREQ APFd/6-31g* SCRF(Solvent=Chloroform) Geom=Connectivity Int(Ultrafine,Acc2E=12) Temp=140

4'-(dimethylamino)-acetophenone O-C(CH3)-C1-C2 rotational TS

0 1
 C        -0.07828588   -1.46861679    0.00000000
 C        -0.02969431   -0.75810666   -1.19448004
 C         0.04524442    0.62491207   -1.20202494
 C         0.09242123    1.35805382    0.00000000
 C         0.04524442    0.62491207    1.20202494
 C        -0.02969431   -0.75810666    1.19448004
 C        -0.18752714   -2.96150822    0.00000000
 C         1.10197285   -3.72567282    0.00000000
 H        -0.06343168   -1.28976435   -2.14148899
 H         0.06684254    1.13638534   -2.15586541
 H         0.06684254    1.13638534    2.15586541
 H        -0.06343168   -1.28976435    2.14148899
 O        -1.26943517   -3.51091907    0.00000000
 H         1.69403971   -3.43639890   -0.87772435
 H         1.69403971   -3.43639890    0.87772435
 H         0.92479955   -4.80172512    0.00000000
 N         0.20765054    2.73148083    0.00000000
 C        -0.05590925    3.45033032   -1.22897239
 H         0.09054716    4.51496694   -1.05162506
 H         0.63830374    3.15094626   -2.01783756
 H        -1.08132579    3.29863830   -1.59552958
 C        -0.05590925    3.45033032    1.22897239
 H         0.63830374    3.15094626    2.01783756
 H         0.09054716    4.51496694    1.05162506
 H        -1.08132579    3.29863830    1.59552958

 1 2 1.5 6 1.5 7 1.0
 2 3 2.0 9 1.0
 3 4 1.5 10 1.0
 4 5 1.5 17 1.5
 5 6 2.0 11 1.0
 6 12 1.0
 7 8 1.0 13 2.0
 8 14 1.0 15 1.0 16 1.0
 9
 10
 11
 12
 13
 14
 15
 16
 17 18 1.0 22 1.0
 18 19 1.0 20 1.0 21 1.0
 19
 20
 21
 22 23 1.0 24 1.0 25 1.0
 23
 24
 25

--Link1--
%chk=x6_02_NMe2_TS
# OPT(TS,RCFC) FREQ APFd 6-311+g(2d,p) SCRF(SMD,Solvent=Chloroform) Geom=(check) Int(Ultrafine,Acc2E=12) Temp=140
guess=read

4'-(dimethylamino)-acetophenone O-C(CH3)-C1-C2 rotational TS

0 1

