%Chk=e4_06_cl2_g3
# G3

Neutral: Molecular Chlorine (Cl2)

     0     1
  Cl                                                0.000000000000      0.000000000000      0.012560058819
  Cl                                                0.000000000000      0.000000000000      2.029752891181

