%Chk=e4_05_h
# APFD/6-311+G(2d,p)  Int=(UltraFine,Acc2E=12)

Neutral: Hydrogen Atom (2-S)

0 2
H

