%Chk=e4_05_cl2-
# APFD/6-311+G(2d,p) Opt Freq Int=(UltraFine,Acc2E=12)

Anion: cl2- 2-SGU

    -1     2
  Cl                                                0.000000000000      0.000000000000      0.016977169478
  Cl                                                0.000000000000      0.000000000000      2.732926270522

