%Chk=e4_06_cn_g3
# G3

Neutral: CN Radical (2-SG)

     0     2
  C                                                 0.000000000000      0.000000000000      0.002230660503
  N                                                 0.000000000000      0.000000000000      1.171689949497

