%Chk=e4_05_cl2+
# APFD/6-311+G(2d,p) Opt Freq Int=(UltraFine,Acc2E=12)

Cation: Cl2+ 2-PIG

     1     2
  Cl                                                0.000000000000      0.000000000000      0.010690236446
  Cl                                                0.000000000000      0.000000000000      1.928927773554

