%Chk=e4_05_c
# APFD/6-311+G(2d,p)  Int=(UltraFine,Acc2E=12)

Neutral: Carbon Atom (3-P)

0 3
C

