%Chk=e4_04
# freq APFD/6-311+g(2d,p)  Int=(UltraFine,Acc2E=12)

Deuterated Formaldehyde IR Spectrum

0 1
C        0.000000    0.000000   -0.001803
O        0.000000    0.000000    1.198472
H(Iso=2)        0.940413    0.000000   -0.586903
H(Iso=2)       -0.940413    0.000000   -0.586903

