%Chk=e4_06_h_cbs
# CBS-QB3

Neutral: Hydrogen Atom (2-S)

0 2
H

