%Chk=e4_06_h_g3
# G3

Neutral: Hydrogen Atom (2-S)

0 2
H

