%chk=e4_07_benzene.chk
# APFD/6-311+g(2d,p) opt=tight freq Int=(UltraFine,Acc2E=12) geom=connectivity

Benzene NMR

0 1
 C                  0.00000000    1.38999410    0.00000000
 C                  1.20377020    0.69499705    0.00000000
 C                  1.20377020   -0.69499705    0.00000000
 C                 -0.00000000   -1.38999410   -0.00000000
 C                 -1.20377020   -0.69499705   -0.00000000
 C                 -1.20377020    0.69499705   -0.00000000
 H                 -0.00000000    2.47542383    0.00000000
 H                  2.14377992    1.23771191    0.00000000
 H                  2.14377992   -1.23771191    0.00000000
 H                 -0.00000000   -2.47542383   -0.00000000
 H                 -2.14377992   -1.23771191   -0.00000000
 H                 -2.14377992    1.23771191   -0.00000000

 1 2 1.5 6 1.5 7 1.0
 2 3 1.5 8 1.0
 3 4 1.5 9 1.0
 4 5 1.5 10 1.0
 5 6 1.5 11 1.0
 6 12 1.0
 7
 8
 9
 10
 11
 12

--link1--
%chk=e4_07_benzene.chk
# APFD/6-311+g(2d,p) nmr Int=(UltraFine,Acc2E=12) cphf=Ultrafine geom=allcheck guess=read


