%Chk=e4_05_cn-
# APFD/6-311+G(2d,p) Opt Freq Int=(UltraFine,Acc2E=12)

Anion: CN-

    -1     1
  C          0.000000000000      0.000000000000      0.003597645599
N            0.000000000000      0.000000000000      1.180479314401

