%Chk=e4_07_pcmstart
# APFD/6-311+g(2d,p) Int=(UltraFine,Acc2E=12)

Start for conformation search: 2,2,4-trimethylpentane-1,3-diol

0 1
 C                 -2.41500000   -0.92700000    0.52900000
 H                 -3.00700000   -1.84200000    0.63700000
 H                 -2.66000000   -0.27100000    1.37100000
 H                 -2.75700000   -0.46100000   -0.39800000
 C                 -0.91900000   -1.23500000    0.47200000
 C                 -0.61700000   -2.33700000    1.50300000
 H                  0.41600000   -2.69300000    1.42600000
 H                 -1.26200000   -3.20900000    1.34900000
 H                 -0.77600000   -1.97800000    2.52600000
 H                 -0.69600000   -1.67000000   -0.51100000
 C                  0.01600000   -0.00900000    0.70700000
 O                  1.36100000   -0.51300000    0.66600000
 H                  1.59700000   -0.54500000   -0.29600000
 H                 -0.14500000    0.35400000    1.73100000
 C                 -0.06400000    1.21900000   -0.27400000
 C                 -1.38400000    2.00400000   -0.16900000
 H                 -1.66400000    2.17800000    0.87600000
 H                 -1.29900000    2.98300000   -0.65300000
 H                 -2.21600000    1.50200000   -0.66700000
 C                  1.06600000    2.21400000    0.09900000
 H                  2.06600000    1.78200000   -0.00900000
 H                  1.03900000    3.10400000   -0.54100000
 H                  0.96500000    2.55300000    1.13700000
 C                  0.14900000    0.77000000   -1.73700000
 H                 -0.70000000    0.18000000   -2.10000000
 H                  0.26800000    1.63400000   -2.40300000
 O                  1.32300000   -0.04300000   -1.83800000
 H                  1.49300000   -0.17200000   -2.79200000

