%Chk=e4_06_cn-_g3
# G3

Anion: CN-

    -1     1
  C          0.000000000000      0.000000000000      0.003597645599
N            0.000000000000      0.000000000000      1.180479314401

