%Chk=e4_07_tms
# opt freq APFD/6-311+g(2d,p) geom=connectivity Int=(UltraFine,Acc2E=12)

TMS APFD 6-311+G(2d,p) Opt Freq NMR

0 1
 Si                 0.00000000    0.00000000    0.00000000
 C                  1.08904100    1.08904100    1.08904100
 C                 -1.08904100   -1.08904100    1.08904100
 C                 -1.08904100    1.08904100   -1.08904100
 C                  1.08904100   -1.08904100   -1.08904100
 H                  1.73377000    1.73377000    0.48539100
 H                  0.48539100    1.73377000    1.73377000
 H                  1.73377000    0.48539100    1.73377000
 H                 -1.73377000   -0.48539100    1.73377000
 H                 -1.73377000   -1.73377000    0.48539100
 H                 -0.48539100   -1.73377000    1.73377000
 H                 -1.73377000    0.48539100   -1.73377000
 H                 -1.73377000    1.73377000   -0.48539100
 H                 -0.48539100    1.73377000   -1.73377000
 H                  1.73377000   -1.73377000   -0.48539100
 H                  1.73377000   -0.48539100   -1.73377000
 H                  0.48539100   -1.73377000   -1.73377000

 1 2 1.0 3 1.0 4 1.0 5 1.0
 2 6 1.0 7 1.0 8 1.0
 3 9 1.0 10 1.0 11 1.0
 4 12 1.0 13 1.0 14 1.0
 5 15 1.0 16 1.0 17 1.0
 6
 7
 8
 9
 10
 11
 12
 13
 14
 15
 16
 17

--link1--
%Chk=e4_07_tms
# nmr APFD/6-311+g(2d,p) geom=allcheck guess=read Int=(UltraFine,Acc2E=12)

