%Chk=e4_06_cl2+_g3
# G3

Cation: Cl2+ 2-PIG

     1     2
  Cl                                                0.000000000000      0.000000000000      0.010690236446
  Cl                                                0.000000000000      0.000000000000      1.928927773554

