%Chk=e4_01_ir
# opt freq=raman APFD/6-311+g(2d,p) geom=connectivity Int=(UltraFine,Acc2E=12)

Formaldehyde IR Spectrum

0 1
 C                  0.00000000    0.00000000    0.00000000
 O                  0.00000000    0.00000000    1.18429000
 H                  0.92442397    0.00000000   -0.58071282
 H                 -0.92442397   -0.00000000   -0.58071282

 1 2 2.0 3 1.0 4 1.0
 2
 3
 4

