%Chk=e4_03_benzocaine_g2
# APFD 6-311+G(2d,p) OPT FREQ(Raman) Int=(UltraFine,Acc2E=12)

benzocaine gauche conformer 2

  0  1
 C                     1.18341   0.76495  -0.00005 
 C                    -0.23711   0.4086   -0.0011 
 C                    -0.592    -0.9481   -0.00308 
 C                    -1.92487  -1.32832  -0.00846 
 C                    -2.95109  -0.34907  -0.0028 
 C                    -2.57927   1.01944  -0.0068 
 C                    -1.24135   1.38434  -0.00135 
 O                     2.1592    0.006    -0.0007 
 O                     1.42801   2.11445   0.00061 
 N                    -4.286    -0.7213    0.07593 
 C                     2.8116    2.50908   0.00391 
 C                     3.49168   1.67183  -1.05174 
 H                     0.2047   -1.71117  -0.0026 
 H                    -2.18229  -2.39785  -0.00779 
 H                    -3.35281   1.80153  -0.0047 
 H                    -0.96073   2.45067   0.00048 
 H                    -4.94917  -0.03583  -0.20067 
 H                    -4.49885  -1.651    -0.20088 
 H                     3.23623   2.32367   1.02498 
 H                     2.87376   3.60508  -0.22464 
 H                     4.57264   1.94662  -1.09206 
 H                     3.03087   1.85096  -2.0524 
 H                     3.3989    0.5858   -0.81178 

