%Chk=e4_09
# opt freq=raman cphf(rdfreq,static) APFD 6-311+g(2d,p) geom=connect Int=(UltraFine,Acc2E=12)

Water dimer freq-dependent Raman

0 1
  O                     -0.109079175863     -1.384795716256     -0.000000001177
  H                      0.344703841075     -1.751171923714      0.767540304937
  H                      0.344703841075     -1.751171922409     -0.767540307913
  O                      0.120993920729      1.513388314923      0.000000001286
  H                     -0.752052900965      1.917653322079      0.000000001630
  H                     -0.037891792106      0.555399420899      0.000000000472

 1 2 1.000 3 1.000
 2 1 1.000
 3 1 1.000
 4 5 1.000 6 1.000
 5 4 1.000
 6 4 1.000

351.1nm, 435.8nm, 514.5nm

