%Chk=e4_02
# Opt Freq APFD/6-311G(2d,p) geom=connectivity Int=(UltraFine,Acc2E=12)

C60 Opt Freq

0 1
C 3.300358494891      0.000000000000      1.236225630418
C 3.300358494891      1.175720441420      0.382014728681
C 3.300358494891      0.726635194066     -1.000127543890
C 3.300358494891     -1.175720441420      0.382014728681
C 3.300358494891     -0.726635194066     -1.000127543890
C 2.581679006992      0.000000000000      2.399073468853
C 1.817649549630     -1.175720441420      2.781088197533
C 0.581423919211     -0.726635194066      3.399201012740
C 1.817649549630      1.175720441420      2.781088197533
C 0.581423919211      0.726635194066      3.399201012740
C 2.581679006992      2.281654455624      0.741354472630
C 1.817649549630      2.281654455623      1.977580103047
C 0.581423919211      3.008289649687      1.741482016519
C 1.817649549630      3.008289649688     -0.258773071261
C 0.581423919211      3.457374897041      0.359339743948
C 2.581679006992      1.410140004158     -1.940891207056
C 1.817649549630      2.585860445577     -1.558876478374
C 0.581423919211      2.585860445576     -2.322905935735
C 1.817649549630      0.683504810092     -2.941018750945
C 0.581423919211      1.410140004156     -3.177116837472
C 2.581679006992     -2.281654455624      0.741354472630
C 1.817649549630     -3.008289649688     -0.258773071261
C 0.581423919211     -3.457374897041      0.359339743948
C 1.817649549630     -2.281654455623      1.977580103047
C 0.581423919211     -3.008289649687      1.741482016519
C 2.581679006992     -1.410140004158     -1.940891207056
C 1.817649549630     -0.683504810092     -2.941018750945
C 0.581423919211     -1.410140004156     -3.177116837472
C 1.817649549630     -2.585860445577     -1.558876478374
C 0.581423919211     -2.585860445576     -2.322905935735
C -3.300358494891      0.000000000000     -1.236225630418
C -3.300358494891      1.175720441420     -0.382014728681
C -3.300358494891      0.726635194066      1.000127543890
C -3.300358494891     -1.175720441420     -0.382014728681
C -3.300358494891     -0.726635194066      1.000127543890
C -2.581679006992      0.000000000000     -2.399073468853
C -1.817649549630     -1.175720441420     -2.781088197533
C -0.581423919211     -0.726635194066     -3.399201012740
C -1.817649549630      1.175720441420     -2.781088197533
C -0.581423919211      0.726635194066     -3.399201012740
C -2.581679006992      2.281654455624     -0.741354472630
C -1.817649549630      2.281654455623     -1.977580103047
C -0.581423919211      3.008289649687     -1.741482016519
C -1.817649549630      3.008289649688      0.258773071261
C -0.581423919211      3.457374897041     -0.359339743948
C -2.581679006992      1.410140004158      1.940891207056
C -1.817649549630      2.585860445577      1.558876478374
C -0.581423919211      2.585860445576      2.322905935735
C -1.817649549630      0.683504810092      2.941018750945
C -0.581423919211      1.410140004156      3.177116837472
C -2.581679006992     -2.281654455624     -0.741354472630
C -1.817649549630     -3.008289649688      0.258773071261
C -0.581423919211     -3.457374897041     -0.359339743948
C -1.817649549630     -2.281654455623     -1.977580103047
C -0.581423919211     -3.008289649687     -1.741482016519
C -2.581679006992     -1.410140004158      1.940891207056
C -1.817649549630     -0.683504810092      2.941018750945
C -0.581423919211     -1.410140004156      3.177116837472
C -1.817649549630     -2.585860445577      1.558876478374
C -0.581423919211     -2.585860445576      2.322905935735

 1 2 1.000 4 1.000 6 2.000
 2 1 1.000 3 1.000 11 2.000
 3 2 1.000 5 1.000 16 2.000
 4 1 1.000 5 1.000 21 2.000
 5 3 1.000 4 1.000 26 2.000
 6 1 2.000 7 1.000 9 1.000
 7 6 1.000 8 1.000 24 2.000
 8 7 1.000 10 1.000 58 2.000
 9 6 1.000 10 1.000 12 2.000
 10 8 1.000 9 1.000 50 2.000
 11 2 2.000 12 1.000 14 1.000
 12 9 2.000 11 1.000 13 1.000
 13 12 1.000 15 1.000 48 2.000
 14 11 1.000 15 1.000 17 2.000
 15 13 1.000 14 1.000 45 2.000
 16 3 2.000 17 1.000 19 1.000
 17 14 2.000 16 1.000 18 1.000
 18 17 1.000 20 1.000 43 2.000
 19 16 1.000 20 1.000 27 2.000
 20 18 1.000 19 1.000 40 2.000
 21 4 2.000 22 1.000 24 1.000
 22 21 1.000 23 1.000 29 2.000
 23 22 1.000 25 1.000 53 2.000
 24 7 2.000 21 1.000 25 1.000
 25 23 1.000 24 1.000 60 2.000
 26 5 2.000 27 1.000 29 1.000
 27 19 2.000 26 1.000 28 1.000
 28 27 1.000 30 1.000 38 2.000
 29 22 2.000 26 1.000 30 1.000
 30 28 1.000 29 1.000 55 2.000
 31 32 1.000 34 1.000 36 2.000
 32 31 1.000 33 1.000 41 2.000
 33 32 1.000 35 1.000 46 2.000
 34 31 1.000 35 1.000 51 2.000
 35 33 1.000 34 1.000 56 2.000
 36 31 2.000 37 1.000 39 1.000
 37 36 1.000 38 1.000 54 2.000
 38 28 2.000 37 1.000 40 1.000
 39 36 1.000 40 1.000 42 2.000
 40 20 2.000 38 1.000 39 1.000
 41 32 2.000 42 1.000 44 1.000
 42 39 2.000 41 1.000 43 1.000
 43 18 2.000 42 1.000 45 1.000
 44 41 1.000 45 1.000 47 2.000
 45 15 2.000 43 1.000 44 1.000
 46 33 2.000 47 1.000 49 1.000
 47 44 2.000 46 1.000 48 1.000
 48 13 2.000 47 1.000 50 1.000
 49 46 1.000 50 1.000 57 2.000
 50 10 2.000 48 1.000 49 1.000
 51 34 2.000 52 1.000 54 1.000
 52 51 1.000 53 1.000 59 2.000
 53 23 2.000 52 1.000 55 1.000
 54 37 2.000 51 1.000 55 1.000
 55 30 2.000 53 1.000 54 1.000
 56 35 2.000 57 1.000 59 1.000
 57 49 2.000 56 1.000 58 1.000
 58 8 2.000 57 1.000 60 1.000
 59 52 2.000 56 1.000 60 1.000
 60 25 2.000 58 1.000 59 1.000
 
