%Chk=e4_06_cl2-_g3
# G3

Anion: cl2- 2-SGU

    -1     2
  Cl                                                0.000000000000      0.000000000000      0.016977169478
  Cl                                                0.000000000000      0.000000000000      2.732926270522

