%Chk=x4_08_co2_g3
# G3

Neutral: Carbon Dioxide

     0     1
  C                                                 0.000000000000      0.000000000000      0.000000000000
  O                                                 0.000000000000      0.000000000000      1.162877184841
  O                                                 0.000000000000      0.000000000000     -1.162877184841

