%Chk=x4_02_acetaldehyde
# opt freq APFD/6-311+g(2d,p) geom=connectivity Int=(UltraFine,Acc2E=12)

Acetaldehyde

0 1
 C                  0.00000000    0.00000000    0.00000000
 C                  0.00000000    0.00000000    1.50440942
 H                  1.01473694    0.00000000   -0.37453459
 H                 -0.52957315    0.87462200   -0.36819946
 H                 -0.52957315   -0.87462200   -0.36819946
 O                  0.97994948    0.00000000    2.17533384
 H                 -0.99014913    0.00000000    1.97318263

 1 2 1.0 3 1.0 4 1.0 5 1.0
 2 6 2.0 7 1.0
 3
 4
 5
 6
 7


