%chk=x4_04_butyne.chk
# opt freq apfd/6-311+g(2d,p) geom=connectivity int=(ultrafine,acc2e=12)

2-Butyne NMR Properties

0 1
 C                  0.01493661   -2.14002179   -0.04744048
 C                  0.00355180   -0.60043355   -0.01364174
 C                 -0.00491519    0.60043396    0.01293530
 C                 -0.01485070    2.14002338    0.04748616
 H                 -0.87797990   -2.49302126   -0.51967304
 H                  0.06320460   -2.51837933    0.95227555
 H                  0.86749583   -2.47838145   -0.59841065
 H                  0.83275858    2.51426758   -0.48768211
 H                  0.02850982    2.47427464    1.06302012
 H                 -0.91272555    2.50123784   -0.40886904

 1 2 1.0 5 1.0 6 1.0 7 1.0
 2 3 3.0
 3 4 1.0
 4 8 1.0 9 1.0 10 1.0
 5
 6
 7
 8
 9
 10

--Link1--
%Chk=x4_04_butyne.chk
# apfd/6-311+g(2d,p) nmr geom=allcheck guess=read int=(ultrafine,acc2e=12)

