%Chk=x4_05
# opt freq APFD/6-311+g(2d,p) geom=connectivity Int=(UltraFine,Acc2E=12)

NitroAnaline Opt Freq

0 1
 C                 -0.95648516   -0.42295877    0.11776389
 C                  0.44458130   -0.42827390    0.08765596
 C                  1.14727006    0.77744129   -0.04041167
 C                  0.44889231    1.98847138   -0.13837398
 C                 -0.95217417    1.99378640   -0.10826719
 C                 -1.65486290    0.78807134    0.01980191
 H                 -1.49300360   -1.34354898    0.21554751
 H                  0.97780818   -1.35292238    0.16245099
 H                 -1.48540110    2.91843468   -0.18306429
 H                 -2.72460821    0.79212966    0.04279109
 N                  1.18597840    3.25320746   -0.27271220
 H                  2.06958136    3.17470920    0.18889785
 H                  0.65715449    3.99302030    0.14324722
 N                  2.61692025    0.77186624   -0.07199068
 O                  3.05817882    1.81609403   -0.82330899
 O                  3.05423443   -0.39512322   -0.61650139

 1 2 1.5 6 1.5 7 1.0
 2 3 1.5 8 1.0
 3 4 1.5 14 1.0
 4 5 1.5 11 1.0
 5 6 1.5 9 1.0
 6 10 1.0
 7
 8
 9
 10
 11 12 1.0 13 1.0
 12
 13
 14 15 1.0 16 1.0
 15
 16

--link1--
%Chk=x4_05
# nmr APFD/6-311+g(2d,p) geom=allcheck guess=read Int=(UltraFine,Acc2E=12)

