%Chk=x4_01_bicyclohexene
# opt freq APFD/6-311+g(2d,p) geom=connectivity Int=(UltraFine,Acc2E=12)

Bicyclo[2.2.0]Hex-1(4)-ene

0 1
 C                  0.00000000    0.00000000    0.00000000
 C                  0.00000000    0.00000000    1.29815436
 C                  1.51900293    0.00000000   -0.14856845
 C                 -1.51900293   -0.00000000   -0.14856845
 C                  1.51900293    0.00000000    1.44672281
 C                 -1.51900293    0.00000000    1.44672281
 H                  1.96366304   -0.88180005   -0.59800279
 H                  1.96366304    0.88180005   -0.59800279
 H                 -1.96366304    0.88180005   -0.59800279
 H                 -1.96366304   -0.88180005   -0.59800279
 H                  1.96366304    0.88180005    1.89615715
 H                  1.96366304   -0.88180005    1.89615715
 H                 -1.96366304   -0.88180005    1.89615715
 H                 -1.96366304    0.88180005    1.89615715

 1 2 2.0 3 1.0 4 1.0
 2 5 1.0 6 1.0
 3 5 1.0 7 1.0 8 1.0
 4 6 1.0 9 1.0 10 1.0
 5 11 1.0 12 1.0
 6 13 1.0 14 1.0
 7
 8
 9
 10
 11
 12
 13
 14

