%Chk=x4_02_methylacetate
# opt freq APFD/6-311+g(2d,p) geom=connectivity Int=(UltraFine,Acc2E=12)

Methyl Acetate 

0 1
 C                  0.00000000    0.00000000    0.00000000
 O                  0.00000000    0.00000000    1.18794900
 O                  1.10769787    0.00000000   -0.72992698
 C                 -1.22919440   -0.00000000   -0.86721035
 C                  2.33834450    0.00000000   -0.02861833
 H                 -2.11164104   -0.00000000   -0.24505197
 H                 -1.22540947    0.87482389   -1.50706397
 H                 -1.22540947   -0.87482389   -1.50706397
 H                  3.10847825   -0.00000000   -0.78406749
 H                  2.42179428    0.88078838    0.59158533
 H                  2.42179428   -0.88078838    0.59158533

 1 2 2.0 3 1.5 4 1.0
 2
 3 5 1.0
 4 6 1.0 7 1.0 8 1.0
 5 9 1.0 10 1.0 11 1.0
 6
 7
 8
 9
 10
 11

