%Chk=x4_09_epoxide
# APFD/6-311g(2d,p) geom=connectivity freq Int=(UltraFine,Acc2E=12)

C60O epoxide isomer opt from APFD/6-311G(2d,p) geometry

0 1
 C                  0.00000000    0.76765900    3.50651600
 C                 -1.19132200    1.44779200    2.93077000
 C                  1.19132200    1.44779200    2.93077000
 C                  0.00000000   -0.76765900    3.50651600
 O                  0.00000000    0.00000000    4.70108900
 C                 -0.72592100    2.57890500    2.17593100
 C                  0.72592100    2.57890500    2.17593100
 C                  1.19132200   -1.44779200    2.93077000
 C                 -1.19132200   -1.44779200    2.93077000
 C                 -2.29084500    0.73610400    2.49375300
 C                  2.29084500    0.73610400    2.49375300
 C                  0.72592100   -2.57890500    2.17593100
 C                 -0.72592100   -2.57890500    2.17593100
 C                 -2.29084500   -0.73610400    2.49375300
 C                 -3.00734400    1.17329700    1.31663600
 C                 -1.41906400    3.02074600    1.05337500
 C                  3.00734400    1.17329700    1.31663600
 C                  2.29084500   -0.73610400    2.49375300
 C                  1.41906400    3.02074600    1.05337500
 C                 -3.00734400   -1.17329700    1.31663600
 C                 -3.45124400    0.00000000    0.59102800
 C                 -2.58679200    2.30008200    0.61359500
 C                 -0.69412000    3.47332600   -0.11779300
 C                  3.45124400    0.00000000    0.59102800
 C                  3.00734400   -1.17329700    1.31663600
 C                  0.69412000    3.47332600   -0.11779300
 C                  2.58679200    2.30008200    0.61359500
 C                 -1.41906400   -3.02074600    1.05337500
 C                  1.41906400   -3.02074600    1.05337500
 C                 -2.59144800    2.29990900   -0.83548000
 C                 -1.42062700    3.02637300   -1.28810200
 C                  1.42062700    3.02637300   -1.28810200
 C                  2.59144800    2.29990900   -0.83548000
 C                 -3.46009100    0.00000000   -0.79774400
 C                 -2.58679200   -2.30008200    0.61359500
 C                 -0.69412000   -3.47332600   -0.11779300
 C                  3.46009100    0.00000000   -0.79774400
 C                  0.69412000   -3.47332600   -0.11779300
 C                  2.58679200   -2.30008200    0.61359500
 C                  0.72507200    2.59491200   -2.41167200
 C                 -0.72507200    2.59491200   -2.41167200
 C                 -3.01746100    1.17306500   -1.52703600
 C                 -3.01746100   -1.17306500   -1.52703600
 C                 -1.42062700   -3.02637300   -1.28810200
 C                 -2.59144800   -2.29990900   -0.83548000
 C                  3.01746100   -1.17306500   -1.52703600
 C                  3.01746100    1.17306500   -1.52703600
 C                  1.42062700   -3.02637300   -1.28810200
 C                  2.59144800   -2.29990900   -0.83548000
 C                 -0.72507200   -2.59491200   -2.41167200
 C                  0.72507200   -2.59491200   -2.41167200
 C                  1.17246000    1.42049300   -3.13221000
 C                 -1.17246000    1.42049300   -3.13221000
 C                 -2.29580700   -0.72551000   -2.69910300
 C                 -2.29580700    0.72551000   -2.69910300
 C                  2.29580700   -0.72551000   -2.69910300
 C                  2.29580700    0.72551000   -2.69910300
 C                 -1.17246000   -1.42049300   -3.13221000
 C                  1.17246000   -1.42049300   -3.13221000
 C                  0.00000000    0.69464900   -3.57918900
 C                  0.00000000   -0.69464900   -3.57918900

 1 2 1.0 3 1.0 4 1.0 5 1.0
 2 6 1.5 10 2.0
 3 7 1.5 11 2.0
 4 5 1.0 8 1.0 9 1.0
 5
 6 7 1.0 16 1.5
 7 19 1.5
 8 12 1.5 18 2.0
 9 13 1.5 14 2.0
 10 14 1.0 15 1.5
 11 17 1.5 18 1.0
 12 13 1.0 29 1.5
 13 28 1.5
 14 20 1.5
 15 21 1.0 22 1.5
 16 22 1.5 23 1.0
 17 24 1.0 27 1.5
 18 25 1.5
 19 26 1.0 27 1.5
 20 21 1.0 35 1.5
 21 34 1.5
 22 30 1.0
 23 26 1.5 31 1.0
 24 25 1.0 37 1.5
 25 39 1.5
 26 32 1.0
 27 33 1.0
 28 35 1.5 36 1.0
 29 38 1.0 39 1.5
 30 31 1.0 42 1.5
 31 41 1.5
 32 33 1.0 40 1.5
 33 47 1.5
 34 42 1.0 43 1.0
 35 45 1.0
 36 38 1.5 44 1.0
 37 46 1.0 47 1.0
 38 48 1.0
 39 49 1.0
 40 41 1.0 52 1.0
 41 53 1.0
 42 55 1.5
 43 45 1.5 54 1.5
 44 45 1.0 50 1.5
 45
 46 49 1.5 56 1.5
 47 57 1.5
 48 49 1.0 51 1.5
 49
 50 51 1.0 58 1.0
 51 59 1.0
 52 57 1.5 60 1.0
 53 55 1.5 60 1.0
 54 55 1.0 58 1.5
 55
 56 57 1.0 59 1.5
 57
 58 61 1.0
 59 61 1.0
 60 61 1.5
 61

