%Chk=x4_08_o2_g4
# g4

Neutral: Molecular Oxygen (3-SGG)

     0     3
  O                                                 0.000000000000      0.000000000000      0.004077554213
  O                                                 0.000000000000      0.000000000000      1.210456785787

