%Chk=x4_06
# opt=tight Int=(UltraFine,Acc2E=12) APFD/6-311+g(2d,p) geom=connectivity

1.1.1-Propellane

0 1
 C                  0.00000000    1.29800500    0.00000000
 C                  1.12410500   -0.64900300    0.00000000
 C                 -1.12410500   -0.64900300    0.00000000
 C                  0.00000000    0.00000000    0.78689700
 C                  0.00000000    0.00000000   -0.78689700
 H                  0.91484900    1.87886200    0.00000000
 H                 -0.91484900    1.87886200    0.00000000
 H                  1.16971800   -1.73171300    0.00000000
 H                  2.08456700   -0.14714900    0.00000000
 H                 -2.08456700   -0.14714900    0.00000000
 H                 -1.16971800   -1.73171300    0.00000000

 1 4 1.0 5 1.0 6 1.0 7 1.0
 2 4 1.0 5 1.0 8 1.0 9 1.0
 3 4 1.0 5 1.0 10 1.0 11 1.0
 4 5 1.0
 5
 6
 7
 8
 9
 10
 11

--link1--
%Chk=x4_06
# nmr APFD/6-311+g(2d,p) Int=(UltraFine,Acc2E=12) geom=allcheck guess=read

