%Chk=x4_15_5
# APFD/6-311+G(2d,p) opt freq Int=(UltraFine,Acc2E=12)

decapentaene linear polyene n=5 opt freq

0 1
 C            0.59478839   -0.31760666    0.00000000
 H            0.61048291   -1.41332835    0.00000000
 C           -0.59478839    0.31760666    0.00000000
 H           -0.61048291    1.41332835    0.00000000
 C           -1.87513394   -0.35474252    0.00000000
 H           -1.85783198   -1.45060388    0.00000000
 C           -3.06449641    0.27731971    0.00000000
 H           -3.08599441    1.37296944    0.00000000
 C            1.87513394    0.35474252    0.00000000
 H            1.85783198    1.45060388    0.00000000
 C            3.06449641   -0.27731971    0.00000000
 H            3.08599441   -1.37296944    0.00000000
 C            4.34748282    0.40420528    0.00000000
 H            4.31562462    1.49922516    0.00000000
 C            5.53163812   -0.21803802    0.00000000
 H            6.46908616    0.33984260    0.00000000
 H            5.59805968   -1.30927086    0.00000000
 C           -4.34748282   -0.40420528    0.00000000
 H           -4.31562462   -1.49922516    0.00000000
 C           -5.53163812    0.21803802    0.00000000
 H           -6.46908616   -0.33984260    0.00000000
 H           -5.59805968    1.30927086    0.00000000

--link1--
%Chk=x4_15_5
# cam-b3lyp/6-311++G(3df,2p) Polar=gamma Int=(UltraFine,Acc2E=12) cphf=rdfreq geom=check guess=read

Decapentaene gamma calculation @ APFD/6-311+G(2d,p) geometry

0 1

694nm

--link1--
%Chk=x4_15_5
# lc-blyp/6-311++G(3df,2p) Polar=gamma Int=(UltraFine,Acc2E=12) geom=allcheck guess=read

--link1--
%Chk=x4_15_5
# apfd/6-311++G(3df,2p) Polar=gamma Int=(UltraFine,Acc2E=12) geom=allcheck guess=read

