%Chk=x4_15_4
# APFD/6-311+G(2d,p) opt freq Int=(UltraFine,Acc2E=12)

linear polyene n=4 opt freq (octatetraene)

0 1
 C            0.63786696   -0.34245979    0.00000000
 H            0.61061573   -1.43807799    0.00000000
 C            1.83176458    0.27931945    0.00000000
 H            1.86265982    1.37477192    0.00000000
 C            3.10958620   -0.41290893    0.00000000
 H            3.06883370   -1.50762075    0.00000000
 C            4.29841177    0.19989801    0.00000000
 H            5.23147420   -0.36531056    0.00000000
 H            4.37343875    1.29058635    0.00000000
 C           -0.63786696    0.34245979    0.00000000
 H           -0.61061573    1.43807799    0.00000000
 C           -1.83176458   -0.27931945    0.00000000
 H           -1.86265982   -1.37477192    0.00000000
 C           -3.10958620    0.41290893    0.00000000
 H           -3.06883370    1.50762075    0.00000000
 C           -4.29841177   -0.19989801    0.00000000
 H           -5.23147420    0.36531056    0.00000000
 H           -4.37343875   -1.29058635    0.00000000

--link1--
%Chk=x4_15_4
# cam-b3lyp/6-311++G(3df,2p) Polar=gamma Int=(UltraFine,Acc2E=12) cphf=rdfreq geom=check guess=read

Octatetraene gamma calculation @ APFD/6-311+G(2d,p) geometry

0 1

694nm

--link1--
%Chk=x4_15_4
# lc-blyp/6-311++G(3df,2p) Polar=gamma Int=(UltraFine,Acc2E=12) geom=allcheck guess=read

--link1--
%Chk=x4_15_4
# apfd/6-311++G(3df,2p) Polar=gamma Int=(UltraFine,Acc2E=12) geom=allcheck guess=read


