%chk=x4_13_acrolein.chk
# freq=anharmonic APFD/6-311+g(2d,p) geom=connectivity Int=(UltraFine,Acc2E=12)

Acrolein Freq=Anharmonic

0 1
 C                  1.20968500    1.27414200    0.00000000
 C                  0.00000000    0.71924800    0.00000000
 C                 -0.15099100   -0.74181900    0.00000000
 O                 -1.21278100   -1.31366900    0.00000000
 H                  2.10470000    0.65704400    0.00000000
 H                  1.35534600    2.34865600    0.00000000
 H                 -0.91436400    1.30599900    0.00000000
 H                  0.80440300   -1.31177700    0.00000000

 1 2 2.0 5 1.0 6 1.0
 2 3 1.0 7 1.0
 3 4 2.0 8 1.0
 4
 5
 6
 7
 8

