%Chk=x4_15_3
# APFD/6-311+G(2d,p) opt freq Int=(UltraFine,Acc2E=12)

hexatriene: linear polyene n=3 opt freq

0 1
 C            0.60235000   -0.29782596    0.00000000
 H            0.65634876   -1.39251318    0.00000000
 C           -0.60235000    0.29782596    0.00000000
 H           -0.65634876    1.39251318    0.00000000
 C           -1.86741362   -0.42032614    0.00000000
 H           -1.80511500   -1.51399025    0.00000000
 C           -3.06719453    0.16952212    0.00000000
 H           -3.98944894   -0.41326123    0.00000000
 H           -3.16304759    1.25861423    0.00000000
 C            1.86741362    0.42032614    0.00000000
 H            1.80511500    1.51399025    0.00000000
 C            3.06719453   -0.16952212    0.00000000
 H            3.98944894    0.41326123    0.00000000
 H            3.16304759   -1.25861423    0.00000000

--link1--
%Chk=x4_15_3
# cam-b3lyp/6-311++G(3df,2p) Polar=gamma Int=(UltraFine,Acc2E=12) cphf=rdfreq geom=check guess=read

Hexatriene gamma calculation @ APFD/6-311+G(2d,p) geometry

0 1

694nm

--link1--
%Chk=x4_15_3
# lc-blyp/6-311++G(3df,2p) Polar=gamma Int=(UltraFine,Acc2E=12) geom=allcheck guess=read

--link1--
%Chk=x4_15_3
# apfd/6-311++G(3df,2p) Polar=gamma Int=(UltraFine,Acc2E=12) geom=allcheck guess=read

