# opt freq b3lyp sto-3g Integral(Grid=UltraFine,Acc2E=12)

Exercise 10.5: HCN Geometry and Frequencies

0 1
 C
 X 1 1.0
 H 1 R1 2 90.0
 N 1 R2 2 90.0 3 180.0

 R1=1.08
 R2=1.15

--Link1--
# opt freq b3lyp cc-pVDZ Integral(Grid=UltraFine,Acc2E=12)

Exercise 10.5: HCN Geometry and Frequencies

0 1
 C
 X 1 1.0
 H 1 R1 2 90.0
 N 1 R2 2 90.0 3 180.0

 R1=1.08
 R2=1.15

--Link1--
# opt freq b3lyp cc-pVTZ Integral(Grid=UltraFine,Acc2E=12)

Exercise 10.5: HCN Geometry and Frequencies

0 1
 C
 X 1 1.0
 H 1 R1 2 90.0
 N 1 R2 2 90.0 3 180.0

 R1=1.08
 R2=1.15

--Link1--
# opt freq b3lyp cc-pVQZ Integral(Grid=UltraFine,Acc2E=12)

Exercise 10.5: HCN Geometry and Frequencies

0 1
 C
 X 1 1.0
 H 1 R1 2 90.0
 N 1 R2 2 90.0 3 180.0

 R1=1.08
 R2=1.15

--Link1--
# opt freq b3lyp cc-pV5Z Integral(Grid=UltraFine,Acc2E=12)

Exercise 10.5: HCN Geometry and Frequencies

0 1
 C
 X 1 1.0
 H 1 R1 2 90.0
 N 1 R2 2 90.0 3 180.0

 R1=1.08
 R2=1.15

