# CISD 6-31G

Helium Atom: CISD

0 1
 He 0.0 0.0 0.0

--Link1--
# CCSD 6-31G

Helium Atom; CCSD

0 1
 He 0.0 0.0 0.0

