# CISD 6-31G

Octahedral He7: CISD

0 1
 He                 0.00000000    0.00000000    0.00000000
 He                 0.00000000    0.00000000   10.00000000
 He                 0.00000000   10.00000000    0.00000000
 He               -10.00000000    0.00000000    0.00000000
 He                 0.00000000  -10.00000000    0.00000000
 He                10.00000000    0.00000000    0.00000000
 He                 0.00000000    0.00000000  -10.00000000

--Link1--
# CCSD 6-31G

Octahedral He7: CCSD

0 1
 He                 0.00000000    0.00000000    0.00000000
 He                 0.00000000    0.00000000   10.00000000
 He                 0.00000000   10.00000000    0.00000000
 He               -10.00000000    0.00000000    0.00000000
 He                 0.00000000  -10.00000000    0.00000000
 He                10.00000000    0.00000000    0.00000000
 He                 0.00000000    0.00000000  -10.00000000

