%Chk=e2_09_up
# FREQ ONIOM(APFd/6-311+G(2d,p):PM6) Geom=Connect Integral(Grid=UltraFine,Acc2E=12)

alpha-tocopherol ortho quinone methide-up

 0,1 0,1 0,1
  O                                                -4.663168413096     -0.424685435453      0.629937593303 H
  C                                                -3.648623552081     -0.459409362579     -0.410183670931 H
  C                                                -3.637428730004      0.881068226294     -1.148259682317 H
  C                                                -5.006696839668      1.191031621853     -1.739786734690 H
  C                                                -7.446153055434      1.372585700149     -0.984028931978 H
  C                                                -8.512513531195      1.101791255421      0.040115467904 H
  C                                                -8.140449781918      0.317697619408      1.227533123059 H
  C                                                -6.871862046907     -0.137745727601      1.359945919515 H
  C                                                -5.860819537499      0.136103810606      0.339525089288 H
  C                                                -6.104326322011      0.877619291909     -0.766135026543 H
  O                                                -9.649339749125      1.522891197145     -0.110659011972 H
  C                                                -7.811720412371      2.064047396981     -2.076341228498 H
  H                                                -7.116960399446      2.301921596643     -2.872618331981 H
  H                                                -8.838521331377      2.395263738184     -2.174896354252 H
  H                                                -5.049142254769      2.251426477561     -2.010713691417 H
  H                                                -5.157716359054      0.636550692481     -2.675865786881 H
  C                                                -6.424349907706     -0.941273248304      2.540390424271 H
  H                                                -6.064283672146     -1.923063555094      2.219768227116 H
  H                                                -5.576967396938     -0.457359892383      3.034042137500 H
  H                                                -7.222624317921     -1.078737877648      3.265957982231 H
  C                                                -9.220919949936      0.069008945923      2.237110862316 H
  H                                                -9.391582716179     -1.000241895389      2.392197058194 H
  H                                                -8.974526991861      0.507215194440      3.208945654575 H
  H                                               -10.151166200358      0.516347338739      1.889430411965 H
  H                                                -3.358015288977      1.659860052256     -0.431873355332 H
  H                                                -2.867710053863      0.870416519453     -1.925213894055 H
  C                                                -3.972656648382     -1.630678289258     -1.334090931226 M H 2 0.723886 0.723886
  H                                                -3.276973568614     -1.690051835547     -2.176661251006 M
  H                                                -3.931324319299     -2.585592399193     -0.795927901694 M
  H                                                -4.987004989547     -1.549657446787     -1.746320928215 M
  C                                                -2.361873716532     -0.699563226954      0.384929303567 M H 2 0.723886 0.723886
  H                                                -2.490349894184     -1.606934608330      1.011879577786 M
  H                                                -2.224726322170      0.124250980813      1.115866322662 M
  C                                                -1.113887025169     -0.840519184431     -0.492575101860 M
  H                                                -0.989386508532      0.057611867869     -1.128231438164 M
  H                                                -1.233303475375     -1.694577344155     -1.188583174266 M
  C                                                 0.142370263409     -1.045163670747      0.364973961790 M
  H                                                 0.026153718912     -1.943759417718      0.999938259177 M
  H                                                 0.251661992960     -0.195738819971      1.067085717910 M
  C                                                 1.420440464706     -1.173847081239     -0.493650809356 M
  H                                                 1.434341695460     -0.336200698677     -1.234111965101 M
  C                                                 2.665266881209     -1.043493573109      0.411424388335 M
  H                                                 2.762755155350     -1.943289562505      1.047620154382 M
  H                                                 2.528961630642     -0.196161311210      1.111074251498 M
  C                                                 3.952274229197     -0.832284648145     -0.396944875461 M
  H                                                 3.852252842093      0.064750354821     -1.037817445120 M
  H                                                 4.105234780405     -1.683130851197     -1.090079722345 M
  C                                                 5.172569715539     -0.683855388594      0.521222935321 M
  H                                                 5.278689183321     -1.582548483421      1.157385441284 M
  H                                                 5.006276405106      0.159058545298      1.219623512104 M
  C                                                 6.477057058803     -0.447766262339     -0.272113779716 M
  H                                                 6.293072378955      0.362749186561     -1.019957510774 M
  C                                                 7.590137926302      0.021743573005      0.690607991650 M
  H                                                 7.902083637897     -0.817000268635      1.340841685029 M
  H                                                 7.188384977968      0.795630372600      1.372941747037 M
  C                                                 8.806190762289      0.585301959484     -0.056400866838 M
  H                                                 9.224794644845     -0.187920592562     -0.730519832576 M
  H                                                 8.491681027870      1.419443278536     -0.712631642288 M
  C                                                 9.888854610988      1.067128454291      0.917970626586 M
  H                                                10.207864998847      0.233910758929      1.571733402819 M
  H                                                 9.462344573483      1.830952015004      1.596264584683 M
  C                                                11.114398101908      1.656750591641      0.187145820067 M
  H                                                10.752673571240      2.374863712116     -0.590535907877 M
  C                                                 1.435595201193     -2.500921386488     -1.262035193084 M
  H                                                 1.419906543710     -3.361207135865     -0.584150253006 M
  H                                                 0.568893056008     -2.589942461927     -1.925231787686 M
  H                                                 2.335346532840     -2.590921506360     -1.881013783741 M
  C                                                 6.899825945165     -1.715240169630     -1.025231250058 M
  H                                                 7.093774767672     -2.547065519880     -0.339726707766 M
  H                                                 6.122643709770     -2.041174028352     -1.724652365134 M
  H                                                 7.815392585075     -1.547543337235     -1.602883292140 M
  C                                                11.930762410902      0.560880064502     -0.510352157764 M
  H                                                12.329211562922     -0.164001123887      0.207425124304 M
  H                                                11.319670273048      0.005850677997     -1.230165833918 M
  H                                                12.780903217994      0.983913109072     -1.055165103660 M
  C                                                11.997326032465      2.428890218220      1.178039248026 M
  H                                                12.874323362331      2.854552750569      0.679005644099 M
  H                                                11.450955106663      3.256210280222      1.642281625519 M
  H                                                12.362901176441      1.781980897090      1.982539702279 M

 1 2 1.000 9 1.000
 2 1 1.000 3 1.000 27 1.000 31 1.000
 3 2 1.000 4 1.000 25 1.000 26 1.000
 4 3 1.000 10 1.000 15 1.000 16 1.000
 5 6 1.000 10 1.500 12 2.000
 6 5 1.000 7 1.000 11 2.000
 7 6 1.000 8 2.000 21 1.000
 8 7 2.000 9 1.000 17 1.000
 9 1 1.000 8 1.000 10 2.000
 10 4 1.000 5 1.500 9 2.000
 11 6 2.000
 12 5 2.000 13 1.000 14 1.000
 13 12 1.000
 14 12 1.000
 15 4 1.000
 16 4 1.000
 17 8 1.000 18 1.000 19 1.000 20 1.000
 18 17 1.000
 19 17 1.000
 20 17 1.000
 21 7 1.000 22 1.000 23 1.000 24 1.000
 22 21 1.000
 23 21 1.000
 24 21 1.000
 25 3 1.000
 26 3 1.000
 27 2 1.000 28 1.000 29 1.000 30 1.000
 28 27 1.000
 29 27 1.000
 30 27 1.000
 31 2 1.000 32 1.000 33 1.000 34 1.000
 32 31 1.000
 33 31 1.000
 34 31 1.000 35 1.000 36 1.000 37 1.000
 35 34 1.000
 36 34 1.000
 37 34 1.000 38 1.000 39 1.000 40 1.000
 38 37 1.000
 39 37 1.000
 40 37 1.000 41 1.000 42 1.000 64 1.000
 41 40 1.000
 42 40 1.000 43 1.000 44 1.000 45 1.000
 43 42 1.000
 44 42 1.000
 45 42 1.000 46 1.000 47 1.000 48 1.000
 46 45 1.000
 47 45 1.000
 48 45 1.000 49 1.000 50 1.000 51 1.000
 49 48 1.000
 50 48 1.000
 51 48 1.000 52 1.000 53 1.000 68 1.000
 52 51 1.000
 53 51 1.000 54 1.000 55 1.000 56 1.000
 54 53 1.000
 55 53 1.000
 56 53 1.000 57 1.000 58 1.000 59 1.000
 57 56 1.000
 58 56 1.000
 59 56 1.000 60 1.000 61 1.000 62 1.000
 60 59 1.000
 61 59 1.000
 62 59 1.000 63 1.000 72 1.000 76 1.000
 63 62 1.000
 64 40 1.000 65 1.000 66 1.000 67 1.000
 65 64 1.000
 66 64 1.000
 67 64 1.000
 68 51 1.000 69 1.000 70 1.000 71 1.000
 69 68 1.000
 70 68 1.000
 71 68 1.000
 72 62 1.000 73 1.000 74 1.000 75 1.000
 73 72 1.000
 74 72 1.000
 75 72 1.000
 76 62 1.000 77 1.000 78 1.000 79 1.000
 77 76 1.000
 78 76 1.000
 79 76 1.000
 
