%Chk=e2_02
# APFD/6-311+g(2d,p) pop=npa geom=connectivity Int=(UltraFine,Acc2E=12)

Acetone energy and NPA charge distribution

0 1
 C                  0.00000000    0.00000000    0.15196251
 C                 -0.00000000    1.33367923   -0.61803754
 H                  1.00880576    1.64256165   -0.79637089
 H                 -0.50440287    1.20573594   -1.55297521
 H                 -0.50440288    2.07938735   -0.03976657
 C                 -0.00000000   -1.33367923   -0.61803754
 H                 -1.00880576   -1.64256165   -0.79637089
 H                  0.50440287   -1.20573594   -1.55297521
 H                  0.50440288   -2.07938735   -0.03976657
 O                 -0.00000000    0.00000000    1.41036261

 1 2 1.0 6 1.0 10 2.0
 2 3 1.0 4 1.0 5 1.0
 3
 4
 5
 6 7 1.0 8 1.0 9 1.0
 7
 8
 9
 10

