%Chk=e2_03meso
# APFD/6-311+g(2d,p) geom=connectivity Int=(UltraFine,Acc2E=12)

CHFCl-CHFCl Meso form

0 1
 C                 -0.00651000    0.00755000   -0.76227600
 C                  0.00651000   -0.00755000    0.76227600
 Cl                 1.68037800    0.00785300   -1.37845700
 Cl                -1.68037800   -0.00785300    1.37845700
 F                 -0.64194900   -1.10947400   -1.21457900
 H                 -0.50059600    0.89323300   -1.15571500
 F                  0.64194900    1.10947400    1.21457900
 H                  0.50059600   -0.89323300    1.15571500

 1 2 1.0 3 1.0 5 1.0 6 1.0
 2 4 1.0 7 1.0 8 1.0
 3
 4
 5
 6
 7
 8

