%Chk=e2_01
# APFD/6-311+g(2d,p) pop=npa geom=connectivity Int=(UltraFine,Acc2E=12)

Formaldehyde Energy & Orbitals

0 1
 C                  0.00000000    0.00000000   -0.52703800
 H                  0.00000000    0.94067800   -1.11171200
 H                  0.00000000   -0.94067800   -1.11171200
 O                  0.00000000    0.00000000    0.67320700

 1 2 1.0 3 1.0 4 2.0
 2
 3
 4

