#

dizincocene optimized structure: APFD/6-311+G(2d,p)

0 1
 C                  0.00000000    1.20627100    3.09861800
 C                  1.14723200    0.37275800    3.09861800
 C                  0.70902800   -0.97589400    3.09861800
 C                 -0.70902800   -0.97589400    3.09861800
 C                 -1.14723200    0.37275800    3.09861800
 C                 -1.14723200    0.37275800   -3.09861800
 C                  0.00000000    1.20627100   -3.09861800
 C                  1.14723200    0.37275800   -3.09861800
 C                  0.70902800   -0.97589400   -3.09861800
 C                 -0.70902800   -0.97589400   -3.09861800
 Zn                 0.00000000    0.00000000    1.16187500
 Zn                 0.00000000    0.00000000   -1.16187500
 H                  0.00000000    2.28715600    3.10545400
 H                 -2.17521400    0.70677000    3.10545400
 H                 -1.34435600   -1.85034800    3.10545400
 H                  1.34435600   -1.85034800    3.10545400
 H                  2.17521400    0.70677000    3.10545400
 H                  0.00000000    2.28715600   -3.10545400
 H                 -2.17521400    0.70677000   -3.10545400
 H                  2.17521400    0.70677000   -3.10545400
 H                  1.34435600   -1.85034800   -3.10545400
 H                 -1.34435600   -1.85034800   -3.10545400

 1 2 1.5 5 1.5 13 1.0
 2 3 1.5 17 1.0
 3 4 1.5 16 1.0
 4 5 1.5 15 1.0
 5 14 1.0
 6 7 1.5 10 1.5 19 1.0
 7 8 1.5 18 1.0
 8 9 1.5 20 1.0
 9 10 1.5 21 1.0
 10 22 1.0
 11 12 1.0
 12
 13
 14
 15
 16
 17
 18
 19
 20
 21
 22

