%Chk=x2_09_Li
# APFD/6-311+G(2d,p) Freq Int=(UltraFine,Acc2E=12)

Li Freq

0 2
 Li                -4.18931546    1.04046241    0.10970109


