%Chk=x2_09_B
# APFD/6-311+G(2d,p) Freq Int=(UltraFine,Acc2E=12)

B Freq

0 2
 B                 -0.67651629   -0.22550544    0.00000000


