%Chk=x2_05_Mg
# APFD/6-311+g(2d,p) geom=connectivity pop=savebiortho Int=(UltraFine,Acc2E=12)

Heterosubstituted Allyl Radicals: R=Mg

0 2
 C                  0.00000000    0.76126669   -0.00000000
 C                  1.32877508    0.90509294    0.00000000
 H                 -0.57759242    1.68964829   -0.00000000
 H                  1.82155619    1.87843418   -0.00000000
 H                  2.01325311    0.05785799    0.00000000
 Mg                -0.93582228   -1.13534152    0.00000000

 1 2 2.0 3 1.0 6 1.0
 2 4 1.0 5 1.0
 3
 4
 5
 6

