%Chk=x2_09_Na
# APFD/6-311+G(2d,p) Freq Int=(UltraFine,Acc2E=12)

Na Freq

0 2
 Na                 1.60964221   -0.05443235    0.00000000


