%Chk=x2_09_N
# APFD/6-311+G(2d,p) Freq Int=(UltraFine,Acc2E=12)

N Freq

0 4
 N                 -1.84292369    0.20995334    0.00000000


