%Chk=x2_07_benzofuran+methyls_up
# opt freq oniom(APFD/6-311+g(2d,p):pm6) geom=connectivity Int=(UltraFine,Acc2E=12)

Modification II (alpha-tocopherol to benzofuran ring plus two methyls on furan ring):
ortho quinone methide-up
ONIOM Opt Freq starting from ONIOM(HF/6-31G**:PM6) opt

0 1 0 1 0 1
 C                0    7.98708200    0.71527600   -0.87143300 H
 C                0    7.03025900   -0.18827200   -1.23230900 H
 C                0    5.74728000   -0.14876700   -0.55391300 H
 C                0    5.38952400    0.71510700    0.42488200 H
 C                0    6.32859200    1.73444800    0.84207100 H
 C                0    7.70840200    1.71026700    0.19998000 H
 O                0    8.57561800    2.50643100    0.55769100 H
 C                0    6.09578500    2.72619200    1.73048800 H
 H                0    5.14829100    2.84825600    2.24093900 H
 H                0    6.88574800    3.43728300    1.94641300 H
 C                0    7.21454800   -1.23975500   -2.29348800 H
 H                0    7.04817500   -2.23982200   -1.87534200 H
 H                0    6.47210200   -1.11557800   -3.09145800 H
 H                0    8.21080800   -1.20683200   -2.73648900 H
 C                0    9.36037600    0.76740100   -1.49464900 H
 H                0    9.91700300   -0.16425700   -1.33362200 H
 H                0    9.30923600    0.93332800   -2.57756900 H
 H                0    9.92759800    1.58477600   -1.04683200 H
 C                0    3.73581200   -0.96977200    0.13079600 H
 C                0    3.91119700    0.48176400    0.75120100 H
 O                0    4.77891000   -1.04001100   -0.90971800 H
 C                0    4.08087000   -2.09430000    1.11817200 L H 19
 H                0    3.33580700   -2.17844300    1.91578200 L
 H                0    4.11253100   -3.04573700    0.57837400 L
 H                0    5.05987100   -1.92681500    1.57737400 L
 C                0    2.41240700   -1.26309300   -0.61010200 L H 19
 H                0    2.51876100   -2.25147700   -1.08955900 L
 H                0    2.28181400   -0.53214000   -1.42262700 L
 C                0    1.18805700   -1.26199200    0.31241000 L
 H                0    1.12317700   -0.29629500    0.85393500 L
 H                0    1.29783700   -2.04294300    1.09047500 L
 C                0   -0.10177700   -1.49928500   -0.48371200 L
 H                0   -0.04259700   -2.46318400   -1.02370400 L
 H                0   -0.19793500   -0.72388200   -1.26857300 L
 C                0   -1.35607100   -1.48098200    0.41825600 L
 H                0   -1.30502500   -0.57833800    1.07610900 L
 C                0   -2.62200700   -1.37103800   -0.45983300 L
 H                0   -2.78428600   -2.31955100   -1.00554000 L
 H                0   -2.46694700   -0.60044300   -1.23976000 L
 C                0   -3.87007700   -1.01920700    0.36050000 L
 H                0   -3.69996000   -0.08080000    0.92255200 L
 H                0   -4.05052800   -1.80063800    1.12496500 L
 C                0   -5.10683100   -0.87288400   -0.53577500 L
 H                0   -5.28283600   -1.81158200   -1.09382800 L
 H                0   -4.91373700   -0.09976100   -1.30449000 L
 C                0   -6.37128200   -0.49745600    0.26862300 L
 H                0   -6.11712200    0.35324100    0.94820200 L
 C                0   -7.48133000   -0.03177200   -0.69942200 L
 H                0   -7.86225700   -0.89502700   -1.27669300 L
 H                0   -7.05326900    0.66293400   -1.44780100 L
 C                0   -8.63879000    0.66049600    0.03233600 L
 H                0   -9.08688200   -0.03469400    0.76949800 L
 H                0   -8.25468300    1.51655700    0.61970400 L
 C                0   -9.71488700    1.14199600   -0.94945200 L
 H                0  -10.10314400    0.28753700   -1.53473600 L
 H                0   -9.25961800    1.82743200   -1.68994700 L
 C                0  -10.88073500    1.85919000   -0.23519200 L
 H                0  -10.45367300    2.60395200    0.48194000 L
 C                0   -1.41047800   -2.72790500    1.30927600 L
 H                0   -1.46443300   -3.64710000    0.71591200 L
 H                0   -0.52491500   -2.80209100    1.94893300 L
 H                0   -2.28952600   -2.71072300    1.96317400 L
 C                0   -6.84773000   -1.67673300    1.12575400 L
 H                0   -7.11406700   -2.54243900    0.51005400 L
 H                0   -6.07052400   -1.99959500    1.82659100 L
 H                0   -7.73256600   -1.40905600    1.71347700 L
 C                0  -11.74630300    0.86943400    0.55541500 L
 H                0  -12.20926400    0.12476100   -0.10074300 L
 H                0  -11.15272800    0.32616500    1.29848800 L
 H                0  -12.55281200    1.38350600    1.08813000 L
 C                0  -11.73873700    2.61736500   -1.25824000 L
 H                0  -12.57354500    3.13238800   -0.77121200 L
 H                0  -11.15343100    3.37362700   -1.79114900 L
 H                0  -12.16561600    1.94198800   -2.00723000 L
 C                0    3.07187400    1.55036700    0.00863700 L H 20
 H                0    3.25088900    1.52411800   -1.07066200 L
 H                0    1.99693300    1.41268700    0.18342000 L
 H                0    3.34493100    2.54906500    0.36410900 L
 C                0    3.54727300    0.51924300    2.24868200 L H 20
 H                0    2.53775200    0.12102100    2.41223200 L
 H                0    4.24505600   -0.05562000    2.86285000 L
 H                0    3.54355400    1.54688600    2.62240000 L

 1 2 2.0 6 1.0 15 1.0
 2 3 1.0 11 1.0
 3 4 2.0 21 1.0
 4 5 1.5 20 1.0
 5 6 1.0 8 2.0
 6 7 2.0
 7
 8 9 1.0 10 1.0
 9
 10
 11 12 1.0 13 1.0 14 1.0
 12
 13
 14
 15 16 1.0 17 1.0 18 1.0
 16
 17
 18
 19 20 1.0 21 1.0 22 1.0 26 1.0
 20 75 1.0 79 1.0
 21
 22 23 1.0 24 1.0 25 1.0
 23
 24
 25
 26 27 1.0 28 1.0 29 1.0
 27
 28
 29 30 1.0 31 1.0 32 1.0
 30
 31
 32 33 1.0 34 1.0 35 1.0
 33
 34
 35 36 1.0 37 1.0 59 1.0
 36
 37 38 1.0 39 1.0 40 1.0
 38
 39
 40 41 1.0 42 1.0 43 1.0
 41
 42
 43 44 1.0 45 1.0 46 1.0
 44
 45
 46 47 1.0 48 1.0 63 1.0
 47
 48 49 1.0 50 1.0 51 1.0
 49
 50
 51 52 1.0 53 1.0 54 1.0
 52
 53
 54 55 1.0 56 1.0 57 1.0
 55
 56
 57 58 1.0 67 1.0 71 1.0
 58
 59 60 1.0 61 1.0 62 1.0
 60
 61
 62
 63 64 1.0 65 1.0 66 1.0
 64
 65
 66
 67 68 1.0 69 1.0 70 1.0
 68
 69
 70
 71 72 1.0 73 1.0 74 1.0
 72
 73
 74
 75 76 1.0 77 1.0 78 1.0
 76
 77
 78
 79 80 1.0 81 1.0 82 1.0
 80
 81
 82

