%Chk=x2_07_benzofuran_up
# opt freq oniom(APFD/6-311+g(2d,p):pm6) geom=connectivity Int=(UltraFine,Acc2E=12)

Modification I (alpha-tocopherol to benzofuran ring):
ortho quinone methide-up
ONIOM Opt Freq starting from ONIOM(HF/6-31G**:PM6) opt

0 1 0 1 0 1
 C                0   -7.86083800    1.32758800    0.68906500 H
 C                0   -7.15631700    0.25426600    1.05759600 H
 C                0   -5.93832500   -0.07098400    0.33087000 H
 C                0   -5.46692400    0.62625400   -0.68888100 H
 C                0   -6.15495200    1.80769900   -1.15981500 H
 C                0   -7.42219200    2.18733200   -0.44329000 H
 O                0   -8.06494900    3.16803300   -0.78204900 H
 C                0   -5.75010400    2.57180300   -2.16516300 H
 H                0   -4.85637300    2.35908800   -2.71797300 H
 H                0   -6.32020700    3.43319700   -2.44853100 H
 C                0   -7.56160700   -0.64800600    2.20096500 H
 H                0   -6.85182900   -1.45322200    2.30861200 H
 H                0   -7.60146200   -0.08812800    3.12932000 H
 H                0   -8.54583900   -1.06762100    2.02248700 H
 C                0   -9.13627500    1.74142500    1.38407600 H
 H                0   -9.88575700    0.95906700    1.31886800 H
 H                0   -8.95739500    1.94590900    2.43485200 H
 H                0   -9.52508400    2.63351800    0.91831600 H
 C                0   -4.06969500   -1.28295000   -0.30679300 H
 C                0   -4.17166300    0.01565300   -1.18074400 H
 O                0   -5.17720700   -1.16346900    0.67686000 H
 H                0   -3.33064900    0.67864800   -1.00537000 H
 H                0   -4.20618600   -0.23208300   -2.23525300 H
 C                0   -4.36768600   -2.54037500   -1.11501000 L H 19
 H                0   -3.59966600   -2.70077700   -1.86302900 L
 H                0   -4.40936800   -3.39966200   -0.45818700 L
 H                0   -5.32478000   -2.43639500   -1.61110800 L
 C                0   -2.78993600   -1.36990000    0.54496800 L H 19
 H                0   -2.89826900   -2.21508200    1.22562900 L
 H                0   -2.73458600   -0.46754600    1.15547600 L
 C                0   -1.53508800   -1.52244400   -0.30789900 L
 H                0   -1.47666800   -0.71087500   -1.05974800 L
 H                0   -1.57856700   -2.46773000   -0.88610800 L
 C                0   -0.26980900   -1.51063200    0.56166600 L
 H                0   -0.31948300   -2.32069400    1.31370200 L
 H                0   -0.23057900   -0.56781600    1.14140900 L
 C                0    1.01837800   -1.65528500   -0.27887900 L
 H                0    0.97027600   -0.92844600   -1.12713000 L
 C                0    2.24476900   -1.30521600    0.59238700 L
 H                0    2.40923300   -2.09884300    1.34538000 L
 H                0    2.03912100   -0.38322800    1.17014000 L
 C                0    3.51524300   -1.10680100   -0.24485100 L
 H                0    3.34826900   -0.31703700   -1.00235000 L
 H                0    3.73811300   -2.03019400   -0.81529100 L
 C                0    4.71541400   -0.73809300    0.63710000 L
 H                0    4.88884600   -1.52976300    1.38994900 L
 H                0    4.47962400    0.17695900    1.21420700 L
 C                0    6.00119100   -0.51099500   -0.18872400 L
 H                0    5.75761200    0.17223800   -1.03956600 L
 C                0    7.06888900    0.17241200    0.69399700 L
 H                0    7.44274100   -0.54195800    1.45129600 L
 H                0    6.60384800    0.99847000    1.26608300 L
 C                0    8.24042700    0.72233400   -0.13031200 L
 H                0    8.72235200   -0.10062200   -0.69423600 L
 H                0    7.86432700    1.43093400   -0.89306800 L
 C                0    9.27650300    1.41754000    0.76241400 L
 H                0    9.65685000    0.70998700    1.52275500 L
 H                0    8.78739200    2.23131100    1.33161400 L
 C                0   10.45547700    1.99597400   -0.04945700 L
 H                0   10.04226000    2.56936100   -0.91652700 L
 C                0    1.14106900   -3.06981400   -0.85843700 L
 H                0    1.19043600   -3.82759200   -0.06898300 L
 H                0    0.28681200   -3.31668300   -1.49732500 L
 H                0    2.04766400   -3.17280900   -1.46528100 L
 C                0    6.52642200   -1.83248700   -0.76337600 L
 H                0    6.78171100   -2.54457600    0.02859100 L
 H                0    5.78096900   -2.31138600   -1.40709700 L
 H                0    7.42891500   -1.67397300   -1.36373600 L
 C                0   11.35964100    0.88251900   -0.59408400 L
 H                0   11.81047000    0.29724700    0.21438100 L
 H                0   10.79811000    0.18704700   -1.22703500 L
 H                0   12.17642500    1.29239700   -1.19688300 L
 C                0   11.26929500    2.96450500    0.82076400 L
 H                0   12.11257500    3.38536600    0.26301100 L
 H                0   10.65673800    3.80208700    1.16969500 L
 H                0   11.68047300    2.46546700    1.70464100 L

 1 2 2.0 6 1.0 15 1.0
 2 3 1.0 11 1.0
 3 4 2.0 21 1.0
 4 5 1.5 20 1.0
 5 6 1.0 8 2.0
 6 7 2.0
 7
 8 9 1.0 10 1.0
 9
 10
 11 12 1.0 13 1.0 14 1.0
 12
 13
 14
 15 16 1.0 17 1.0 18 1.0
 16
 17
 18
 19 20 1.0 21 1.0 24 1.0 28 1.0
 20 22 1.0 23 1.0
 21
 22
 23
 24 25 1.0 26 1.0 27 1.0
 25
 26
 27
 28 29 1.0 30 1.0 31 1.0
 29
 30
 31 32 1.0 33 1.0 34 1.0
 32
 33
 34 35 1.0 36 1.0 37 1.0
 35
 36
 37 38 1.0 39 1.0 61 1.0
 38
 39 40 1.0 41 1.0 42 1.0
 40
 41
 42 43 1.0 44 1.0 45 1.0
 43
 44
 45 46 1.0 47 1.0 48 1.0
 46
 47
 48 49 1.0 50 1.0 65 1.0
 49
 50 51 1.0 52 1.0 53 1.0
 51
 52
 53 54 1.0 55 1.0 56 1.0
 54
 55
 56 57 1.0 58 1.0 59 1.0
 57
 58
 59 60 1.0 69 1.0 73 1.0
 60
 61 62 1.0 63 1.0 64 1.0
 62
 63
 64
 65 66 1.0 67 1.0 68 1.0
 66
 67
 68
 69 70 1.0 71 1.0 72 1.0
 70
 71
 72
 73 74 1.0 75 1.0 76 1.0
 74
 75
 76

