%Chk=x2_09_H2
# APFD/6-311+G(2d,p) Opt Freq Int=(UltraFine,Acc2E=12)

H2 Freq

0 1
 H                 -2.86598374    0.57586772    0.00000000
 H                 -2.26620880    0.55943553    0.00000000


