%Chk=x2_05_O
# APFD/6-311+g(2d,p) geom=connectivity pop=savebiorth Int=(UltraFine,Acc2E=12)

Heterosubstituted Allyl Radicals: R=O

0 2
 C                  0.00000000    0.42736895    0.00000000
 C                  1.05612175   -0.52228169    0.00000000
 H                  0.28428665    1.49523587    0.00000000
 H                  2.09211106   -0.20659704    0.00000000
 H                  0.81994879   -1.57920266    0.00000000
 O                 -1.19163463    0.10750504    0.00000000

 1 2 1.5 3 1.0 6 2.0
 2 4 1.0 5 1.0
 3
 4
 5
 6

