%Chk=x2_09_BH
# APFD/6-311+G(2d,p) Opt Freq Int=(UltraFine,Acc2E=12)

BH Opt Freq

0 1
 B                 -2.41835134    0.16329704    0.00000000
 H                 -1.23835134    0.16329704    0.00000000


