%Chk=x2_09_FH
# APFD/6-311+G(2d,p) Opt Freq Int=(UltraFine,Acc2E=12)

FH Opt Freq

0 1
 F                  0.94090197   -1.46967338    0.00000000
 H                  0.06090197   -1.46967338    0.00000000



