%Chk=x2_02
# opt freq APFD/6-311+g(2d,p) geom=connectivity Int=(UltraFine,Acc2E=12)

Chromium hexacarbonyl

0 1
 Cr                 0.00000000   -0.00000000   -0.00000000
 C                  0.00000000    0.00000000    1.90000000
 C                  0.00000000    1.90000000    0.00000000
 C                 -1.90000000    0.00000000    0.00000000
 C                 -0.00000000    0.00000000   -1.90000000
 C                  0.00000000   -1.90000000   -0.00000000
 C                  1.90000000    0.00000000   -0.00000000
 O                  3.15840000    0.00000000    0.00000000
 O                  0.00000000    0.00000000    3.15840000
 O                 -0.00000000    3.15840000    0.00000000
 O                 -3.15840000   -0.00000000    0.00000000
 O                 -0.00000000    0.00000000   -3.15840000
 O                  0.00000000   -3.15840000    0.00000000

 1 2 1.0 3 1.0 4 1.0 5 1.0 6 1.0 7 1.0
 2 9 2.0
 3 10 2.0
 4 11 2.0
 5 12 2.0
 6 13 2.0
 7 8 2.0
 8
 9
 10
 11
 12
 13

