%Chk=x2_09_Mg
# APFD/6-311+G(2d,p) Freq Int=(UltraFine,Acc2E=12)

Mg Freq

0 1
 Mg                 0.28469749    1.04982205    0.00000000


