%Chk=x2_09_SH
# APFD/6-311+G(2d,p) Opt Freq Int=(UltraFine,Acc2E=12)

SH Opt Freq

0 2
 S                 -2.80396206    1.65480425    0.00000000
 H                 -4.11396206    1.65480425    0.00000000

