%Chk=x2_07_benzofuran_down
# opt freq oniom(APFD/6-311+g(2d,p):pm6) geom=connectivity Int=(UltraFine,Acc2E=12)

Modification I (alpha-tocopherol to benzofuran ring):
ortho quinone methide-down
ONIOM Opt Freq starting from ONIOM(HF/6-31G**:PM6) opt

0 1 0 1 0 1
 C                0   -8.15862300    0.98419000    0.75135200 H
 C                0   -7.25924700   -0.07890600    1.19751000 H
 C                0   -6.05263500   -0.14166500    0.58313800 H
 C                0   -5.61228200    0.75903200   -0.46996900 H
 C                0   -6.38935900    1.75769200   -0.95132500 H
 C                0   -7.73553300    1.92834100   -0.35953300 H
 O                0   -8.48096400    2.82087200   -0.76231600 H
 C                0   -5.99214200    2.72317300   -2.02949900 H
 H                0   -5.01039300    2.49026200   -2.44806100 H
 H                0   -6.73270800    2.72237200   -2.83575400 H
 C                0   -7.66271000   -1.04376600    2.27788700 H
 H                0   -6.88075300   -1.78735100    2.43996700 H
 H                0   -7.84431500   -0.52880300    3.22947000 H
 H                0   -8.58832600   -1.57107100    2.01681200 H
 C                0   -9.38762400    1.18317200    1.27479900 H
 H                0  -10.00394200    1.98742500    0.88925700 H
 H                0   -9.78618500    0.56621800    2.07194100 H
 C                0   -4.04596400   -1.03456200   -0.16039200 H
 C                0   -4.20083400    0.36028100   -0.82284100 H
 O                0   -5.08260900   -1.05770800    0.87770500 H
 H                0   -3.48835300    1.07588700   -0.39194500 H
 H                0   -4.01747400    0.32487200   -1.90027600 H
 C                0   -4.36548400   -2.16670600   -1.14133600 L H 18
 H                0   -3.60981200   -2.22223300   -1.93240500 L
 H                0   -4.39107600   -3.12588900   -0.61719900 L
 H                0   -5.34061100   -2.00413800   -1.61065700 L
 C                0   -2.71442100   -1.24141800    0.58969700 L H 18
 H                0   -2.76718300   -2.20165300    1.12858200 L
 H                0   -2.62596900   -0.44984000    1.35160800 L
 C                0   -1.50020500   -1.22200000   -0.34455700 L
 H                0   -1.46284100   -0.26844100   -0.90555100 L
 H                0   -1.59476500   -2.02114700   -1.10688800 L
 C                0   -0.19766700   -1.41267400    0.44387300 L
 H                0   -0.22632700   -2.37143900    0.99573200 L
 H                0   -0.11684300   -0.62523400    1.21849600 L
 C                0    1.05004700   -1.37125200   -0.46633700 L
 H                0    0.98844300   -0.45855300   -1.10906200 L
 C                0    2.32003000   -1.26774700    0.40676600 L
 H                0    2.49212500   -2.22566100    0.93298300 L
 H                0    2.16437100   -0.51370000    1.20249300 L
 C                0    3.56100700   -0.89108300   -0.41333200 L
 H                0    3.39421900    0.07453100   -0.92813600 L
 H                0    3.72251400   -1.63752200   -1.21626300 L
 C                0    4.81076100   -0.80183400    0.47225200 L
 H                0    4.98461000   -1.76969900    0.97896100 L
 H                0    4.63535900   -0.06740200    1.28207900 L
 C                0    6.06912500   -0.39741500   -0.32753800 L
 H                0    5.82041300    0.49999700   -0.94620300 L
 C                0    7.20211900   -0.01603100    0.65082700 L
 H                0    7.57477100   -0.92218200    1.16434700 L
 H                0    6.79877400    0.63581200    1.44975600 L
 C                0    8.36197200    0.70133900   -0.05235800 L
 H                0    8.77931600    0.05185500   -0.84707600 L
 H                0    7.98773700    1.60651000   -0.56802900 L
 C                0    9.46752100    1.08482000    0.93983300 L
 H                0    9.84584900    0.18096100    1.45302100 L
 H                0    9.04282300    1.72405600    1.73760600 L
 C                0   10.63701800    1.82588600    0.25663500 L
 H                0   10.21510100    2.63277600   -0.39315000 L
 C                0    1.10922900   -2.60343300   -1.37740000 L
 H                0    1.15383300   -3.53256000   -0.79889000 L
 H                0    0.23117500   -2.66374200   -2.02854100 L
 H                0    1.99597700   -2.57847000   -2.02098900 L
 C                0    6.51094900   -1.52649200   -1.26689600 L
 H                0    6.76366000   -2.43715800   -0.71346200 L
 H                0    5.72042500   -1.78451900   -1.97954200 L
 H                0    7.39615500   -1.23904300   -1.84476900 L
 C                0   11.46159100    0.87844300   -0.62445900 L
 H                0   11.91734400    0.07481500   -0.03633500 L
 H                0   10.84027700    0.40810800   -1.39411500 L
 H                0   12.27100600    1.41179800   -1.13327900 L
 C                0   11.53382400    2.48360400    1.31531200 L
 H                0   12.37152900    3.01440500    0.85072700 L
 H                0   10.97834300    3.21065700    1.91643000 L
 H                0   11.95831600    1.74330400    2.00169700 L
 H                0   -5.97078600    3.74757500   -1.64115100 H

 1 2 1.0 6 1.0 15 2.0
 2 3 2.0 11 1.0
 3 4 1.0 20 1.0
 4 5 2.0 19 1.0
 5 6 1.0 8 1.0
 6 7 2.0
 7
 8 9 1.0 10 1.0 76 1.0
 9
 10
 11 12 1.0 13 1.0 14 1.0
 12
 13
 14
 15 16 1.0 17 1.0
 16
 17
 18 19 1.0 20 1.0 23 1.0 27 1.0
 19 21 1.0 22 1.0
 20
 21
 22
 23 24 1.0 25 1.0 26 1.0
 24
 25
 26
 27 28 1.0 29 1.0 30 1.0
 28
 29
 30 31 1.0 32 1.0 33 1.0
 31
 32
 33 34 1.0 35 1.0 36 1.0
 34
 35
 36 37 1.0 38 1.0 60 1.0
 37
 38 39 1.0 40 1.0 41 1.0
 39
 40
 41 42 1.0 43 1.0 44 1.0
 42
 43
 44 45 1.0 46 1.0 47 1.0
 45
 46
 47 48 1.0 49 1.0 64 1.0
 48
 49 50 1.0 51 1.0 52 1.0
 50
 51
 52 53 1.0 54 1.0 55 1.0
 53
 54
 55 56 1.0 57 1.0 58 1.0
 56
 57
 58 59 1.0 68 1.0 72 1.0
 59
 60 61 1.0 62 1.0 63 1.0
 61
 62
 63
 64 65 1.0 66 1.0 67 1.0
 65
 66
 67
 68 69 1.0 70 1.0 71 1.0
 69
 70
 71
 72 73 1.0 74 1.0 75 1.0
 73
 74
 75
 76

