%Chk=x2_09_Al
# APFD/6-311+G(2d,p) Freq Int=(UltraFine,Acc2E=12)

Al Freq

0 2
 Al                -3.48754423   -0.19572953    0.00000000


