%Chk=x2_08_default
# APFD/6-311+g(2d,p) geom=connectivity stable=opt Int=(UltraFine,Acc2E=12)

Ozone Stability

0 1
 O                  0.00000000    0.00000000    0.00000000
 O                  0.00000000    0.00000000    1.27200000
 O                  1.13536916    0.00000000    1.84551623

 1 2 1.0
 2 3 1.0
 3


