%Chk=x2_09_NH
# APFD/6-311+G(2d,p) Opt Freq Int=(UltraFine,Acc2E=12)

NH Opt Freq

0 3
 N                 -0.95645407   -0.17884914    0.00000000
 H                 -0.62313217   -1.12166223    0.00000000


