%Chk=x2_09_P
# APFD/6-311+G(2d,p) Freq Int=(UltraFine,Acc2E=12)

P Freq

0 4
 P                 -1.99288241    0.94306048    0.00000000


