%Chk=x2_09_O
# APFD/6-311+G(2d,p) Freq Int=(UltraFine,Acc2E=12)

O Freq

0 3
 O                 -0.27216173    0.02332815    0.00000000


