%Chk=x2_06_triplet
# opt freq APFD/6-311+g(2d,p) geom=connectivity  Int=(UltraFine,Acc2E=12)

O2 triplet

0 3
 O                 -2.71929830    0.86744638    0.00000000
 O                 -3.88089830    0.86744638    0.00000000

 1 2 2.0
 2

