%Chk=x2_09_CH
# APFD/6-311+G(2d,p) Opt Freq Int=(UltraFine,Acc2E=12)

CH Opt Freq

0 2
 C                 -0.98755826   -0.42768273    0.00000000
 H                 -2.05755826   -0.42766955    0.00000000


