%Chk=x2_09_OH
# APFD/6-311+G(2d,p) Opt Freq Int=(UltraFine,Acc2E=12)

OH Opt Freq

0 2
 O                  1.06531876   -0.45878693    0.00000000
 H                  0.74486417    0.44614890    0.00000000


