%Chk=x2_09_Be
# APFD/6-311+G(2d,p) Freq Int=(UltraFine,Acc2E=12)

Be Freq

0 1
 Be                 1.43856912    0.42768273    0.00000000


