%Chk=x2_09_PH
# APFD/6-311+G(2d,p) Opt Freq Int=(UltraFine,Acc2E=12)

PH Opt Freq

0 3
 P                 -0.28469749    1.08540924    0.00000000
 H                 -1.63469749    1.08540924    0.00000000


