%Chk=x2_09_Si
# APFD/6-311+G(2d,p) Freq Int=(UltraFine,Acc2E=12)

Si Freq

0 3
 Si                -0.56939498   -0.01779359    0.00000000


