%Chk=x2_09_F
# APFD/6-311+G(2d,p) Freq Int=(UltraFine,Acc2E=12)

F Freq

0 2
 F                  0.06998444   -0.24105754    0.00000000


