%Chk=x2_07_benzofuran+methyls_down
# opt freq oniom(APFD/6-311+g(2d,p):pm6) geom=connectivity Int=(UltraFine,Acc2E=12)

Modification II (alpha-tocopherol to benzofuran ring plus two methyls on furan ring):
ortho quinone methide-down
ONIOM Opt Freq starting from ONIOM(HF/6-31G**:PM6) opt

0 1 0 1 0 1
 C                0    8.02493400    0.66085100   -0.70940400 H
 C                0    7.09329400   -0.40656900   -1.06056200 H
 C                0    5.83038400   -0.27860800   -0.58823200 H
 C                0    5.34477700    0.82174700    0.23337600 H
 C                0    6.14872600    1.84951900    0.60949400 H
 C                0    7.56897500    1.81043900    0.16778300 H
 O                0    8.35300900    2.69990700    0.49714200 H
 C                0    5.73901600    3.04649500    1.43056000 H
 H                0    5.60161400    2.78857200    2.48791100 H
 H                0    6.52866000    3.79828700    1.37627200 H
 C                0    7.52339600   -1.58051000   -1.89724100 H
 H                0    6.70870100   -2.30121900   -1.99470400 H
 H                0    7.82310100   -1.26869400   -2.90677000 H
 H                0    8.38500800   -2.09425300   -1.45128000 H
 C                0    9.31091000    0.68602300   -1.12243400 H
 H                0    9.95465400    1.50406500   -0.81836500 H
 H                0    9.73210500   -0.08840000   -1.75448700 H
 C                0    3.76866800   -0.96811800    0.15130200 H
 C                0    3.84642600    0.58405400    0.43492700 H
 O                0    4.83067600   -1.17874200   -0.83305000 H
 C                0    4.13707500   -1.81608800    1.37832700 L H 18
 H                0    3.36082300   -1.77517300    2.14886300 L
 H                0    4.25957600   -2.85861500    1.06908600 L
 H                0    5.07997200   -1.47956800    1.82176900 L
 C                0    2.48421200   -1.49293200   -0.52716800 L H 18
 H                0    2.66623500   -2.54660700   -0.79961400 L
 H                0    2.32487200   -0.94991900   -1.47091500 L
 C                0    1.24437400   -1.39667900    0.37000900 L
 H                0    1.21588500   -0.41118300    0.88246400 L
 H                0    1.30575000   -2.15345000    1.17732300 L
 C                0   -0.04179000   -1.60351100   -0.43944500 L
 H                0    0.00468100   -2.56511100   -0.98534200 L
 H                0   -0.11524500   -0.82157300   -1.22012700 L
 C                0   -1.30468900   -1.56899600    0.45010100 L
 H                0   -1.24075200   -0.67735900    1.12146000 L
 C                0   -2.55784700   -1.41794700   -0.44002000 L
 H                0   -2.72257500   -2.34725900   -1.01731100 L
 H                0   -2.38384800   -0.62510700   -1.19320000 L
 C                0   -3.81379300   -1.07914200    0.37360800 L
 H                0   -3.63835000   -0.16859300    0.97808600 L
 H                0   -4.02056600   -1.88924100    1.10076900 L
 C                0   -5.03213200   -0.87358600   -0.53625000 L
 H                0   -5.19937900   -1.77539700   -1.15466100 L
 H                0   -4.82191900   -0.05536600   -1.25184500 L
 C                0   -6.31137100   -0.54502900    0.26536100 L
 H                0   -6.06696700    0.25429600    1.00791700 L
 C                0   -7.39734000   -0.00455600   -0.69096500 L
 H                0   -7.76462300   -0.82051800   -1.34126900 L
 H                0   -6.95057000    0.74393900   -1.37367100 L
 C                0   -8.57204900    0.63273500    0.06289300 L
 H                0   -9.04246200   -0.11741700    0.72885600 L
 H                0   -8.20146700    1.43633400    0.72790700 L
 C                0   -9.61934600    1.19808800   -0.90524600 L
 H                0   -9.98870600    0.39776700   -1.57343200 L
 H                0   -9.14346400    1.94447600   -1.56993700 L
 C                0  -10.80706500    1.85165600   -0.16634800 L
 H                0  -10.40279200    2.52854300    0.62719200 L
 C                0   -1.39522300   -2.82731700    1.32192700 L
 H                0   -1.48092300   -3.73491500    0.71449100 L
 H                0   -0.50914200   -2.93998900    1.95556900 L
 H                0   -2.27004800   -2.79272300    1.98058000 L
 C                0   -6.81271800   -1.77791500    1.02767300 L
 H                0   -7.07982300   -2.59316500    0.34683500 L
 H                0   -6.04872100   -2.16041500    1.71296500 L
 H                0   -7.70261100   -1.54347800    1.62182000 L
 C                0  -11.69617200    0.79726000    0.50571800 L
 H                0  -12.13977800    0.11631800   -0.22842600 L
 H                0  -11.12511100    0.18719300    1.21379400 L
 H                0  -12.51792400    1.26360000    1.05865600 L
 C                0  -11.63336700    2.69997900   -1.14365600 L
 H                0  -12.48357500    3.17073500   -0.63878200 L
 H                0  -11.03244600    3.49993100   -1.58803200 L
 H                0  -12.03587900    2.09522000   -1.96317000 L
 H                0    4.80335500    3.49105400    1.07582600 H
 C                0    3.10486200    1.40081200   -0.65361600 L H 19
 H                0    3.42721800    1.11855900   -1.66043700 L
 H                0    2.02012200    1.25716400   -0.58578900 L
 H                0    3.31127100    2.46770000   -0.52327300 L
 C                0    3.28545200    0.95762300    1.81733200 L H 19
 H                0    3.88926100    0.55577700    2.63527200 L
 H                0    3.23128000    2.04158900    1.94095500 L
 H                0    2.26257900    0.56559300    1.92063600 L

 1 2 1.0 6 1.0 15 2.0
 2 3 2.0 11 1.0
 3 4 1.0 20 1.0
 4 5 2.0 19 1.0
 5 6 1.0 8 1.0
 6 7 2.0
 7
 8 9 1.0 10 1.0 74 1.0
 9
 10
 11 12 1.0 13 1.0 14 1.0
 12
 13
 14
 15 16 1.0 17 1.0
 16
 17
 18 19 1.0 20 1.0 21 1.0 25 1.0
 19 75 1.0 79 1.0
 20
 21 22 1.0 23 1.0 24 1.0
 22
 23
 24
 25 26 1.0 27 1.0 28 1.0
 26
 27
 28 29 1.0 30 1.0 31 1.0
 29
 30
 31 32 1.0 33 1.0 34 1.0
 32
 33
 34 35 1.0 36 1.0 58 1.0
 35
 36 37 1.0 38 1.0 39 1.0
 37
 38
 39 40 1.0 41 1.0 42 1.0
 40
 41
 42 43 1.0 44 1.0 45 1.0
 43
 44
 45 46 1.0 47 1.0 62 1.0
 46
 47 48 1.0 49 1.0 50 1.0
 48
 49
 50 51 1.0 52 1.0 53 1.0
 51
 52
 53 54 1.0 55 1.0 56 1.0
 54
 55
 56 57 1.0 66 1.0 70 1.0
 57
 58 59 1.0 60 1.0 61 1.0
 59
 60
 61
 62 63 1.0 64 1.0 65 1.0
 63
 64
 65
 66 67 1.0 68 1.0 69 1.0
 67
 68
 69
 70 71 1.0 72 1.0 73 1.0
 71
 72
 73
 74
 75 76 1.0 77 1.0 78 1.0
 76
 77
 78
 79 80 1.0 81 1.0 82 1.0
 80
 81
 82

