%Chk=x2_09_H
# APFD/6-311+G(2d,p) Freq Int=(UltraFine,Acc2E=12)

H Freq

0 2
 H                -3.08709158   -0.02332815    0.00000000


