%Chk=x2_09_C
# APFD/6-311+G(2d,p) Freq Int=(UltraFine,Acc2E=12)

C Freq

0 3
 C                 -0.56765160    0.10108865    0.00000000


