%Chk=x2_04
# opt freq APFD/6-311+g(2d,p) geom=connectivity Int=(UltraFine,Acc2E=12)

FluoroEthylene

0 1
 C                  0.00000000    0.00000000    0.00000000
 C                  0.00000000    0.00000000    1.33000000
 H                  0.84955881    0.00000000   -0.48851798
 F                 -1.09762900   -0.00000000   -0.63883533
 H                 -0.85640931    0.00000000    1.82864225
 H                  0.85580583    0.00000000    1.82769104

 1 2 2.0 3 1.0 4 1.0
 2 5 1.0 6 1.0
 3
 4
 5
 6

