%Chk=x2_09_Cl
# APFD/6-311+G(2d,p) Freq Int=(UltraFine,Acc2E=12)

Cl Freq

0 2
 Cl                 1.13878995    0.26690391    0.00000000


