%Chk=x2_01
# opt freq APFD/6-311+g(2d,p) geom=connectivity Int=(UltraFine,Acc2E=12)

Ethylene

0 1
 C                  0.00000000    0.00000000    0.00000000
 C                  0.00000000    0.00000000    1.31600000
 H                  0.90995561    0.00000000   -0.56860337
 H                 -0.90995561   -0.00000000   -0.56860337
 H                 -0.90995561    0.00000000    1.88460337
 H                  0.90995561    0.00000000    1.88460337

 1 2 2.0 3 1.0 4 1.0
 2 5 1.0 6 1.0
 3
 4
 5
 6

