%Chk=x2_09_S
# APFD/6-311+G(2d,p) Freq Int=(UltraFine,Acc2E=12)

S Freq

0 3
 S                 -0.28469749    1.51245549    0.00000000


