%Chk=x2_14_ala2
#p APFD/3-21G geom=connectivity iop1=timestamp scf=(noincore,novaracc) Int=(UltraFine,Acc2E=12)

Ac(Ala)2NH2

0 1
 N                  2.43320700   -0.13292000   -0.58235400
 C                  1.67948000   -1.37692700   -0.33610100
 C                  0.18982200   -1.23338400   -0.63559000
 O                 -0.25739000   -1.73448000   -1.70204500
 H                  3.02776800   -0.10128400   -1.43995400
 H                 -3.96786700   -1.12767900    0.90481100
 C                  2.35563100    1.01315300    0.15745500
 H                  2.03708100   -2.13572000   -1.07212800
 C                  2.00512400   -1.94706500    1.05454700
 H                  3.09858900   -2.11950200    1.13882200
 H                  1.47538600   -2.91059100    1.21039100
 H                  1.71508300   -1.24547000    1.86269200
 N                 -0.66788600   -0.63841000    0.23288500
 C                 -2.10714600   -0.47154500   -0.03340600
 C                 -2.52338500    0.99081000   -0.15659800
 O                 -3.72537000    1.26108800   -0.40631200
 H                 -2.65346800   -0.71005700    2.06913000
 H                 -0.29333300   -0.28814300    1.13962000
 H                 -2.39222900   -0.92880000   -1.01213200
 C                 -2.87224800   -1.18462300    1.08869600
 H                 -2.57293500   -2.25368000    1.12989600
 N                 -1.64759700    2.00849900   -0.05056500
 H                 -0.63360800    1.84564900    0.11898700
 H                  2.93928400    3.02701000    0.47293600
 O                  1.64004000    1.07649700    1.18495300
 C                  3.12685700    2.20807600   -0.24947800
 H                  2.80177000    2.52623600   -1.25900500
 H                  4.20634000    1.96222900   -0.25255700
 H                 -1.99497700    2.98381500   -0.16118100

 1 2 1.0 5 1.0 7 1.5
 2 3 1.0 8 1.0 9 1.0
 3 4 2.0 13 1.5
 4
 5
 6 20 1.0
 7 25 2.0 26 1.0
 8
 9 10 1.0 11 1.0 12 1.0
 10
 11
 12
 13 14 1.0 18 1.0
 14 15 1.0 19 1.0 20 1.0
 15 16 2.0 22 1.5
 16
 17 20 1.0
 18
 19
 20 21 1.0
 21
 22 23 1.0 29 1.0
 23
 24 26 1.0
 25
 26 27 1.0 28 1.0
 27
 28
 29

--link1--
%Chk=x2_14_ala2
#p APFD/6-31g(d) geom=allcheck iop1=timestamp scf=(noincore,novaracc) guess=read Int=(UltraFine,Acc2E=12)

