%Chk=x2_11
# APFD/6-311+G(2d,p) Opt Freq Int=(UltraFine,Acc2E=12)

Malonaldehyde

0,1
8     -1.352668   -0.870438    0.000000
6     -1.177858    0.427952    0.000000
1     -0.507736   -1.311407    0.000000
6      0.000000    1.071141    0.000000
1     -2.107619    0.969408    0.000000
6      1.259866    0.343184    0.000000
1      0.011840    2.143909    0.000000
8      1.345475   -0.855214    0.000000
1      2.169018    0.949646    0.000000

