%Chk=e8_05_b
# opt freq apfd/6-311+g(2d,p) geom=connectivity int=(ultrafine,acc2e=12)

Plumericin conformation 1b: ECD

0 1
 C                 -0.25411200    1.19002800   -1.10820300
 O                  0.55951300    2.08898200   -0.30592300
 C                  1.85187300    1.77358800   -0.12192600
 C                  2.35885000    0.53273700   -0.17119900
 C                  1.45353700   -0.66509200   -0.33676300
 C                  1.09752400   -1.29368000    0.99849300
 C                 -0.20879700   -1.33995900    1.23053300
 C                 -1.00000500   -0.77679200    0.09052800
 C                  0.06467300   -0.29782400   -0.92486200
 C                 -1.89741800    0.45823500    0.34557400
 O                 -1.57819100    1.37122300   -0.73247100
 C                  3.80841200    0.39174600    0.05288000
 O                  4.18182200   -0.91304000    0.07876200
 O                  4.59546900    1.30010900    0.20267200
 C                  5.58477000   -1.14911700    0.28707900
 O                 -1.88043700   -1.78472200   -0.47311300
 C                 -3.19987600   -1.42943200   -0.37962500
 C                 -3.28646300   -0.06419800    0.20135200
 C                 -4.44884900    0.51155400    0.50648700
 C                 -4.64316500    1.87317000    1.07986000
 O                 -4.08273800   -2.16005200   -0.73220100
 H                  2.47059400    2.63434100    0.09993100
 H                 -0.14985300    1.53892100   -2.13590700
 H                 -0.10031300   -0.79648500   -1.87899900
 H                  1.95269100   -1.40570100   -0.96519100
 H                 -1.68641900    0.94190700    1.30056400
 H                  1.86681400   -1.64214900    1.67549500
 H                 -0.68227300   -1.74479300    2.11624100
 H                 -5.34292300   -0.07319200    0.30292500
 H                 -3.70299800    2.38272800    1.28857400
 H                 -5.23279900    1.81919400    2.00026400
 H                 -5.21635700    2.49225300    0.38195600
 H                  5.90113500   -0.74071300    1.24647500
 H                  5.70332300   -2.22965600    0.27152300
 H                  6.17015300   -0.68644100   -0.50692000

 1 9 1.0 2 1.0 23 1.0 11 1.0
 2 3 1.0
 3 22 1.0 4 2.0
 4 12 1.0 5 1.0
 5 9 1.0 25 1.0 6 1.0
 6 7 2.0 27 1.0
 7 8 1.0 28 1.0
 8 9 1.0 10 1.0 16 1.0
 9 24 1.0
 10 11 1.0 26 1.0 18 1.0
 11
 12 14 2.0 13 1.0
 13 15 1.0
 14
 15 33 1.0 34 1.0 35 1.0
 16 17 1.0
 17 18 1.0 21 2.0
 18 19 2.0
 19 20 1.0 29 1.0
 20 30 1.0 31 1.0 32 1.0
 21
 22
 23
 24
 25
 26
 27
 28
 29
 30
 31
 32
 33
 34
 35

--link1--
%Chk=e8_05_b
# TD(Nstates=20) geom=allcheck guess=read apfd 6-311+g(2d,p) int=(ultrafine,acc2e=12)

