%Chk=e8_05_c
# opt freq apfd/6-311+g(2d,p) geom=connectivity Int=(Ultrafine,Acc2E=12)

Plumericin conformation 1c: ECD

0 1
 C                 -0.40501700    0.98448800   -0.94246200
 O                  0.71750400    1.81501200   -1.14698100
 C                  1.91970500    1.39718000   -0.69802300
 C                  2.24039300    0.14293600   -0.35755700
 C                  1.25728800   -0.99555300   -0.48976000
 C                  1.00956100   -1.78568500    0.77774400
 C                 -0.27370400   -1.84531300    1.10757500
 C                 -1.13312800   -1.04315800    0.18460200
 C                 -0.16409200   -0.53347000   -0.91774400
 C                 -1.75672400    0.24851800    0.78748500
 O                 -0.95498900    1.32987700    0.32260000
 C                  3.61938700   -0.19432100    0.03262500
 O                  4.00656200   -1.33094600    0.20505200
 O                  4.42516600    0.88325100    0.17675200
 C                  5.78843500    0.59468900    0.52880600
 O                 -2.23201900   -1.81809500   -0.34599900
 C                 -3.40700700   -1.11232700   -0.35075400
 C                 -3.17713500    0.20650300    0.29074800
 C                 -4.13585200    1.12923100    0.37493100
 C                 -4.01913700    2.47668800    1.00221200
 O                 -4.41543600   -1.56452400   -0.81638800
 H                  2.63804200    2.20429800   -0.68561300
 H                 -1.09659000    1.26921600   -1.73904900
 H                 -0.43525800   -0.96658500   -1.87842900
 H                  1.66605900   -1.68041900   -1.24159600
 H                 -1.70065200    0.27145300    1.87675900
 H                  1.82472900   -2.25320500    1.31207500
 H                 -0.69070800   -2.37267800    1.95629500
 H                 -5.09693800    0.86577600   -0.06107200
 H                 -3.03155200    2.66267400    1.42076100
 H                 -4.77238700    2.59008100    1.78880000
 H                 -4.22937800    3.25660000    0.26299700
 H                  6.25920900   -0.02141900   -0.23690300
 H                  6.27992400    1.56189500    0.59758700
 H                  5.83334000    0.07325700    1.48453200

 1 9 1.0 2 1.0 23 1.0 11 1.0
 2 3 1.0
 3 22 1.0 4 2.0
 4 12 1.0 5 1.0
 5 9 1.0 25 1.0 6 1.0
 6 7 2.0 27 1.0
 7 8 1.0 28 1.0
 8 9 1.0 10 1.0 16 1.0
 9 24 1.0
 10 11 1.0 26 1.0 18 1.0
 11
 12 13 2.0 14 1.0
 13
 14 15 1.0
 15 33 1.0 34 1.0 35 1.0
 16 17 1.0
 17 18 1.0 21 2.0
 18 19 2.0
 19 20 1.0 29 1.0
 20 30 1.0 31 1.0 32 1.0
 21
 22
 23
 24
 25
 26
 27
 28
 29
 30
 31
 32
 33
 34
 35

--link1--
%Chk=e8_05_c
# TD(Nstates=20) geom=allcheck guess=read apfd 6-311+g(2d,p) Int=(Ultrafine,Acc2E=12)

