%chk=e8_08_syn_chex_3
# TD(Root=1,Read) Opt Freq APFD/6-311+G(2d,p) SCRF(Solvent=cyclohexane) Geom=Check Guess=Read Int=(Ultrafine,Acc2E=12) 

Coumarin/syn/chex: TD optimization

0 1

