%Chk=e8_05_d
# opt freq apfd/6-311+g(2d,p) geom=connectivity int=(ultrafine,acc2e=12)

Plumericin conformation 1d: ECD

0 1
 C                 -0.49355700    1.13943100   -0.83623900
 O                  0.52948400    2.10258900   -0.96014500
 C                  1.77301300    1.78388900   -0.55243600
 C                  2.23562300    0.55392200   -0.29658900
 C                  1.37686100   -0.67500300   -0.47797100
 C                  1.20145700   -1.53858200    0.75388900
 C                 -0.07001600   -1.75854500    1.05949800
 C                 -1.00418600   -1.02114100    0.15602300
 C                 -0.08474600   -0.34233500   -0.89759700
 C                 -1.79008700    0.15297600    0.80624500
 O                 -1.10454500    1.34235200    0.43152300
 C                  3.66933000    0.46226100    0.04557000
 O                  4.40946400    1.39680700    0.25648800
 O                  4.09025900   -0.82730700    0.08595500
 C                  5.48434200   -1.01145100    0.38778900
 O                 -1.99042300   -1.89600100   -0.43497800
 C                 -3.23966100   -1.33027300   -0.44619700
 C                 -3.18131400   -0.02467900    0.25802300
 C                 -4.24142600    0.77918000    0.34581800
 C                 -4.30000400    2.10199600    1.03102700
 O                 -4.17548300   -1.87441600   -0.96190200
 H                  2.41431500    2.65283000   -0.49267200
 H                 -1.19815000    1.39280700   -1.63219600
 H                 -0.29771300   -0.74143400   -1.88723500
 H                  1.84718600   -1.28629100   -1.25646300
 H                 -1.76950400    0.11777600    1.89650400
 H                  2.05305900   -1.93505100    1.28897600
 H                 -0.43359200   -2.36479700    1.87960600
 H                 -5.15165800    0.42842900   -0.13549800
 H                 -3.35483200    2.38017100    1.49393300
 H                 -5.08720200    2.09471300    1.79203300
 H                 -4.57361200    2.88496600    0.31614000
 H                  5.72081100   -0.59155300    1.36499300
 H                  5.64340800   -2.08691000    0.38209900
 H                  6.10367200   -0.52772900   -0.36685800

 1 9 1.0 2 1.0 23 1.0 11 1.0
 2 3 1.0
 3 22 1.0 4 2.0
 4 12 1.0 5 1.0
 5 9 1.0 25 1.0 6 1.0
 6 7 2.0 27 1.0
 7 8 1.0 28 1.0
 8 9 1.0 10 1.0 16 1.0
 9 24 1.0
 10 11 1.0 26 1.0 18 1.0
 11
 12 13 2.0 14 1.0
 13
 14 15 1.0
 15 33 1.0 34 1.0 35 1.0
 16 17 1.0
 17 18 1.0 21 2.0
 18 19 2.0
 19 20 1.0 29 1.0
 20 30 1.0 31 1.0 32 1.0
 21
 22
 23
 24
 25
 26
 27
 28
 29
 30
 31
 32
 33
 34
 35

--link1--
%Chk=e8_05_d
# TD(Nstates=20) geom=allcheck guess=read apfd 6-311+g(2d,p) int=(ultrafine,acc2e=12)

