%chk=e8_01.chk
# td=(nstates=20) apfd/6-311+g(2d,p) geom=connectivity
int=(ultrafine,acc2e=12) iop(9/40=3) pop=full

Benzene excited state energies (20 lowest)

0 1
 C                  0.00000000    1.38980400    0.00000000
 C                  1.20360500    0.69490200    0.00000000
 C                  1.20360500   -0.69490200    0.00000000
 C                  0.00000000   -1.38980400    0.00000000
 C                 -1.20360500   -0.69490200    0.00000000
 C                 -1.20360500    0.69490200    0.00000000
 H                  0.00000000    2.47523400    0.00000000
 H                  2.14361600    1.23761700    0.00000000
 H                  2.14361600   -1.23761700    0.00000000
 H                  0.00000000   -2.47523400    0.00000000
 H                 -2.14361600   -1.23761700    0.00000000
 H                 -2.14361600    1.23761700    0.00000000

 1 2 1.5 6 1.5 7 1.0
 2 3 1.5 8 1.0
 3 4 1.5 9 1.0
 4 5 1.5 10 1.0
 5 6 1.5 11 1.0
 6 12 1.0
 7
 8
 9
 10
 11
 12

