%Chk=e8_03_gs
# opt 6-311+g(2d,p) geom=connectivity apfd int=(ultrafine,acc2e=12)

V(H2O)6 +2 Th point group

2 4
 V                  0.00000000    0.00000000    0.00000000
 O                 -1.53498475    0.88622386    1.25330980
 H                 -1.35070469    1.43856771    2.03444197
 H                 -2.49167237    0.77982972    1.10284576
 O                  0.00000000   -1.77244772    1.25330980
 H                 -0.57048384   -1.88902843    2.03444197
 H                  0.57048384   -2.54776643    1.10284576
 O                  1.53498475    0.88622386    1.25330980
 H                  1.92118853    0.45046072    2.03444197
 H                  1.92118853    1.76793671    1.10284576
 O                  1.53498475   -0.88622386   -1.25330980
 H                  2.49167237   -0.77982972   -1.10284576
 H                  1.35070469   -1.43856771   -2.03444197
 O                  0.00000000    1.77244772   -1.25330980
 H                 -0.57048384    2.54776643   -1.10284576
 H                  0.57048384    1.88902843   -2.03444197
 O                 -1.53498475   -0.88622386   -1.25330980
 H                 -1.92118853   -0.45046072   -2.03444197
 H                 -1.92118853   -1.76793671   -1.10284576

 1
 2 3 1.0 4 1.0
 3
 4
 5 6 1.0 7 1.0
 6
 7
 8 9 1.0 10 1.0
 9
 10
 11 12 1.0 13 1.0
 12
 13
 14 15 1.0 16 1.0
 15
 16
 17 18 1.0 19 1.0
 18
 19

--link1--
%Chk=e8_03_gs
# APFD 6-311+G(2d,p) Freq Int=(Ultrafine,Acc2E=12) Geom=Allcheck Guess=Read Pop=NPA Density=Current

