%Chk=e8_05_a
# opt freq apfd/6-311+g(2d,p) geom=connectivity Int=(Ultrafine,Acc2E=12)

Plumericin conformation 1a

0 1
 C                 -0.17756300    1.03756100   -1.14092500
 O                  0.73038300    1.87265600   -0.36943000
 C                  1.98875600    1.43633800   -0.18466400
 C                  2.36312100    0.14854200   -0.19771800
 C                  1.34032600   -0.95369100   -0.32449400
 C                  0.93758800   -1.50482400    1.03075600
 C                 -0.36493200   -1.41352300    1.27148500
 C                 -1.10678400   -0.80907900    0.11904000
 C                 -0.00821000   -0.46860300   -0.91625800
 C                 -1.87762300    0.51507100    0.33916900
 O                 -1.47266600    1.36366900   -0.76306000
 C                  3.76061900   -0.24830900    0.02263000
 O                  4.11926800   -1.40311600    0.12119500
 O                  4.61728400    0.79639000    0.11042500
 C                  5.99162800    0.45050300    0.34963600
 O                 -2.08624900   -1.74335200   -0.40779200
 C                 -3.36336500   -1.25802700   -0.32113900
 C                 -3.31215900    0.12933200    0.21033200
 C                 -4.41032600    0.83141400    0.48713500
 C                 -4.46496600    2.22823400    1.00383100
 H                 -5.04910600    2.27107300    1.92837400
 H                  2.68179100    2.24521100    0.00615200
 H                 -0.04727700    1.34538800   -2.17881400
 H                 -0.23015100   -0.97561300   -1.85436300
 H                  1.77006100   -1.75730100   -0.92718000
 H                 -1.61806700    1.00167800    1.28057800
 H                  1.67717800   -1.91243000    1.70770500
 H                 -0.86915300   -1.74634700    2.17015000
 H                 -5.35924700    0.33290500    0.30335900
 H                 -3.47732100    2.65039700    1.18617900
 O                 -4.31647000   -1.91002900   -0.64401300
 H                 -4.98035700    2.87144700    0.28306000
 H                  6.37583700   -0.16861500   -0.46055100
 H                  6.52467700    1.39696400    0.39334000
 H                  6.09207500   -0.09013100    1.29051600

 1 9 1.0 2 1.0 23 1.0 11 1.0
 2 3 1.0
 3 22 1.0 4 2.0
 4 12 1.0 5 1.0
 5 9 1.0 25 1.0 6 1.0
 6 7 2.0 27 1.0
 7 8 1.0 28 1.0
 8 9 1.0 10 1.0 16 1.0
 9 24 1.0
 10 11 1.0 26 1.0 18 1.0
 11
 12 13 2.0 14 1.0
 13
 14 15 1.0
 15 33 1.0 34 1.0 35 1.0
 16 17 1.0
 17 18 1.0 31 2.0
 18 19 2.0
 19 20 1.0 29 1.0
 20 30 1.0 21 1.0 32 1.0
 21
 22
 23
 24
 25
 26
 27
 28
 29
 30
 31
 32
 33
 34
 35

--link1--
%Chk=e8_05_a
# TD(Nstates=20) geom=allcheck guess=read apfd 6-311+g(2d,p) int=(ultrafine,acc2e=12)

