%chk=e8_02
# opt freq apfd/6-311+g(2d,p) geom=connectivity int=(ultrafine,acc2e=12) 
  scrf(solvent=methanol)

triarylamine-based dye (TC1) in free form (conformation 1b) 
optimized in methanol

0 1
 N                 -1.96239300   -0.03212000   -0.02151400
 C                 -0.58989900   -0.19368200   -0.06361000
 C                 -0.00860800   -1.41362800   -0.47316800
 C                  0.27893700    0.86048700    0.30599100
 C                  1.35829600   -1.55587900   -0.51371900
 H                 -0.63992000   -2.23783400   -0.77274300
 C                  1.64382100    0.70508200    0.26742200
 H                 -0.13604100    1.80042500    0.64111000
 C                  2.23673100   -0.50994900   -0.14774400
 H                  1.77700800   -2.49777800   -0.84893100
 H                  2.26059500    1.53630900    0.57648300
 C                 -2.56277500    1.26941900   -0.05282500
 C                 -2.27503600    2.15450500   -1.09294300
 C                 -3.46405400    1.64177900    0.94496000
 C                 -2.87527000    3.40803400   -1.12383300
 H                 -1.58656600    1.85802800   -1.87441100
 C                 -4.06891200    2.89306700    0.90276200
 H                 -3.68815500    0.95247100    1.74940100
 C                 -3.77449300    3.78131400   -0.12822300
 H                 -2.64808000    4.08903200   -1.93509000
 H                 -4.76583100    3.17603300    1.68233000
 H                 -4.24477100    4.75652000   -0.15752500
 C                 -2.84557100   -1.15955400    0.04254100
 C                 -3.85794000   -1.30350400   -0.90645200
 C                 -2.71935300   -2.09703800    1.06884400
 C                 -4.73532500   -2.37946500   -0.82892500
 H                 -3.95594300   -0.57407300   -1.70072600
 C                 -3.59317500   -3.17613000    1.13481900
 H                 -1.94229700   -1.97681600    1.81345600
 C                 -4.60455000   -3.32067400    0.18853600
 H                 -5.51776500   -2.48506800   -1.57063000
 H                 -3.49024600   -3.89817900    1.93581900
 H                 -5.28748800   -4.15934500    0.24565400
 C                  3.63870300   -0.77094100   -0.22956500
 C                  4.74427900   -0.00818300    0.04245300
 C                  4.70461700    1.33168700    0.51228800
 N                  4.68198400    2.42217300    0.89465200
 C                  6.07335600   -0.62130600   -0.16548300
 O                  6.26451300   -1.75173200   -0.56430000
 O                  7.08475800    0.21898000    0.13879200
 H                  7.91805000   -0.25244600   -0.02187400
 H                  3.89346500   -1.76827700   -0.57497200

 1 2 1.0 12 1.0 23 1.0
 2 3 1.5 4 1.5
 3 5 2.0 6 1.0
 4 7 2.0 8 1.0
 5 9 1.5 10 1.0
 6
 7 9 1.5 11 1.0
 8
 9 34 1.5
 10
 11
 12 13 1.5 14 1.5
 13 15 1.5 16 1.0
 14 17 1.5 18 1.0
 15 19 1.5 20 1.0
 16
 17 19 1.5 21 1.0
 18
 19 22 1.0
 20
 21
 22
 23 24 1.5 25 1.5
 24 26 1.5 27 1.0
 25 28 1.5 29 1.0
 26 30 1.5 31 1.0
 27
 28 30 1.5 32 1.0
 29
 30 33 1.0
 31
 32
 33
 34 35 2.0 42 1.0
 35 36 1.5 38 1.0
 36 37 3.0
 37
 38 39 2.0 40 1.0
 39
 40 41 1.0
 41
 42

--link1--
%Chk=e8_02
# TD(NStates=10,Root=1,NonEqSolv) apfd/6-311+g(2d,p) geom=allcheck guess=read
  int=(ultrafine,acc2e=12) scrf(solvent=methanol) density=current

