%chk=x8_01
# opt freq 6-311+g(2d,p) scrf=(solvent=methanol) geom=connectivity apfd
  int=(ultrafine,acc2e=12)

triarylamine-based dye (TC1) bound to Ti Complex
optimized in methanol

0 1
 N                 -4.10264131    0.11128190    0.03998500
 C                 -2.72089420    0.10500791    0.04207500
 C                 -1.98458415    1.24658200    0.42893403
 C                 -1.99664414   -1.04701818   -0.34785403
 C                 -0.61006605    1.22508300    0.42341203
 H                 -2.50302819    2.14045806    0.74501605
 C                 -0.62266604   -1.05492817   -0.35507203
 H                 -2.53130018   -1.93181025   -0.66288706
 C                  0.12446801    0.08193092    0.03169800
 H                 -0.07114601    2.11123807    0.73859605
 H                 -0.11938000   -1.95438024   -0.67855705
 C                 -4.85775436   -1.10721819    0.07349300
 C                 -4.66554435   -2.03016726    1.10251708
 C                 -5.81369345   -1.35634621   -0.91148207
 C                 -5.41725238   -3.19923135    1.13547508
 H                 -3.93299729   -1.82886624    1.87426814
 C                 -6.56916647   -2.52263031   -0.86746107
 H                 -5.96281745   -0.63758316   -1.70750514
 C                 -6.37212547   -3.44897938    0.15308201
 H                 -5.26385238   -3.91001541    1.93845714
 H                 -7.30790452   -2.71004032   -1.63728013
 H                 -6.96020750   -4.35793345    0.18449801
 C                 -4.84450737    1.33813899    0.00692000
 C                 -5.79599543    1.59884401    0.99306907
 C                 -4.64358836    2.25765306   -1.02349908
 C                 -6.53870253    2.77342510    0.94879507
 H                 -5.95218945    0.88241096    1.78984313
 C                 -5.38260143    3.43468716   -1.05693809
 H                 -3.91425930    2.04727905   -1.79584914
 C                 -6.33314050    3.69615017   -0.07325401
 H                 -7.27443957    2.96973711    1.71926813
 H                 -5.22299641    4.14253421   -1.86130715
 H                 -6.91152653    4.61129624   -0.10516301
 C                  1.54942012    0.17439393    0.05460400
 C                  2.54239620   -0.71529014   -0.26605802
 C                  2.32959319   -2.04211523   -0.72986106
 N                  2.17006318   -3.12366332   -1.10412209
 C                  3.94747931   -0.29886010   -0.14541302
 O                  4.27179033    0.85605999    0.28036102
 O                  4.89454738   -1.09012015   -0.46817104
 H                  1.93401115    1.13415901    0.38471503
 Ti                 6.35128049    0.45156897   -0.09072401
 O                  6.34706046    1.13747202   -1.77829114
 H                  6.17811247    2.06826109   -1.96817115
 O                  6.82057752    1.88554508    0.96053407
 H                  7.72248061    2.01290409    1.27928609
 O                  7.79762161   -0.65339911   -0.22768802
 H                  8.01941763   -1.28330216    0.46955603
 O                  6.16968548   -0.59826511    2.00969915
 H                  5.95681944    0.03368894    2.70902320
 H                  5.56023644   -1.34089517    2.11443716

 1 2 1.5 12 1.0 23 1.0
 2 3 1.5 4 1.5
 3 5 2.0 6 1.0
 4 7 2.0 8 1.0
 5 9 1.5 10 1.0
 6
 7 9 1.5 11 1.0
 8
 9 34 1.5
 10
 11
 12 13 1.5 14 1.5
 13 15 1.5 16 1.0
 14 17 1.5 18 1.0
 15 19 1.5 20 1.0
 16
 17 19 1.5 21 1.0
 18
 19 22 1.0
 20
 21
 22
 23 24 1.5 25 1.5
 24 26 1.5 27 1.0
 25 28 1.5 29 1.0
 26 30 1.5 31 1.0
 27
 28 30 1.5 32 1.0
 29
 30 33 1.0
 31
 32
 33
 34 35 2.0 41 1.0
 35 36 1.5 38 1.0
 36 37 3.0
 37
 38 39 2.0 40 2.0
 39 42 0.5
 40 42 0.5
 41
 42 43 1.0 45 1.0 47 1.0 49 0.5
 43 44 1.0
 44
 45 46 1.0
 46
 47 48 1.0
 48
 49 50 1.0 51 1.0
 50
 51

--link1--
%Chk=e8_01
# TD(NStates=10,Root=1,NonEqSolv) apfd/6-311+g(2d,p) geom=allcheck guess=read
  int=(ultrafine,acc2e=12) scrf(solvent=methanol) density=current


