%Chk=x8_06_nh2h_gs
# opt freq 6-311+g(2d,p) geom=connectivity apfd int=(ultrafine,acc2e=12)

H-Ph4-NH2

0 1
 C                  0.35756408    1.14582195   -5.36667368
 C                  0.00000000   -0.00000000   -4.63112693
 C                 -0.35756408   -1.14582195   -5.36667368
 C                 -0.35488650   -1.15347608   -6.75644251
 C                  0.00000000   -0.00000000   -7.48258738
 C                  0.35488650    1.15347608   -6.75644251
 C                  0.00000000   -0.00000000   -3.14919764
 C                 -0.35060576    1.14806194   -2.41589753
 C                 -0.34889938    1.14922338   -1.02394417
 C                  0.00000000   -0.00000000   -0.29249761
 C                  0.34889938   -1.14922338   -1.02394417
 C                  0.35060576   -1.14806194   -2.41589753
 C                  0.00000000   -0.00000000    1.19077474
 C                 -0.37108388   -1.14305010    1.92110966
 C                 -0.37079511   -1.14322270    3.31326327
 C                  0.00000000    0.00000000    4.04301649
 C                  0.37079511    1.14322270    3.31326327
 C                  0.37108388    1.14305010    1.92110966
 C                  0.00000000    0.00000000    5.52820238
 C                 -0.38492926    1.14399405    6.25161097
 C                 -0.38474180    1.14430480    7.64672947
 C                  0.00000000    0.00000000    8.35142265
 C                  0.38474180   -1.14430480    7.64672947
 C                  0.38492926   -1.14399405    6.25161097
 N                  0.00000000   -0.00000000   -8.87418803
 H                 -0.69578089   -2.03721007    3.84157252
 H                 -0.69702893   -2.03683505    1.39322218
 H                  0.69702893    2.03683505    1.39322218
 H                  0.69578089    2.03721007    3.84157252
 H                 -0.70971534    2.03407595    5.71660514
 H                 -0.69311088    2.03942563    8.18443755
 H                  0.00000000    0.00000000    9.43995676
 H                  0.69311088   -2.03942563    8.18443755
 H                  0.70971534   -2.03407595    5.71660514
 H                 -0.65974652    2.04903296   -0.49688509
 H                 -0.66382997    2.04697806   -2.94277093
 H                  0.66382997   -2.04697806   -2.94277093
 H                  0.65974652   -2.04903296   -0.49688509
 H                 -0.65951642   -2.04876421   -4.83972394
 H                 -0.64556968   -2.05543224   -7.29417995
 H                  0.64556968    2.05543224   -7.29417995
 H                  0.65951642    2.04876421   -4.83972394
 H                 -0.04082153    0.88772434   -9.32182515
 H                  0.04082153   -0.88772434   -9.32182515

 1 2 1.5 6 1.5 42 1.0
 2 3 1.5 7 1.0
 3 4 1.5 39 1.0
 4 5 1.5 40 1.0
 5 6 1.5 25 1.0
 6 41 1.0
 7 8 1.5 12 1.5
 8 9 1.5 36 1.0
 9 10 1.5 35 1.0
 10 11 1.5 13 1.0
 11 12 1.5 38 1.0
 12 37 1.0
 13 14 1.5 18 1.5
 14 15 1.5 27 1.0
 15 16 1.5 26 1.0
 16 17 1.5 19 1.0
 17 18 1.5 29 1.0
 18 28 1.0
 19 20 1.5 24 1.5
 20 21 1.5 30 1.0
 21 22 1.5 31 1.0
 22 23 1.5 32 1.0
 23 24 1.5 33 1.0
 24 34 1.0
 25 43 1.0 44 1.0
 26
 27
 28
 29
 30
 31
 32
 33
 34
 35
 36
 37
 38
 39
 40
 41
 42
 43
 44

--Link1--
%Chk=x8_06_nh2h_gs
# TD(NStates=6) APFD/6-311+G(2d,p) Geom=Allcheck Guess=Read Int=(ultrafine,acc2e=12)



