%oldchk=x8_09_1
%chk=x8_09_2
# APFD/6-311+G(2d,p) SCRF=(Solvent=Ethanol,Read) Geom=Check Guess=Read 
  Int=(Ultrafine,Acc2E=12)

Acetaldehyde: prepare for state-specific non-eq solvation
by saving the solvent reaction field from the ground state

0 1

NonEq=write

--link1--
%chk=x8_09_2
# APFD/6-311+G(2d,p) TD(NStates=6,Root=1) Geom=Check Guess=Read
  SCRF=(Solvent=Ethanol,ExternalIteration,Read)
  Int=(Ultrafine,Acc2E=12)

Acetaldehyde: read solvent reaction field from ground state and
compute energy of the first excited with the EI method and non-equilibrium solvation

0 1

NonEq=read

