%Chk=x8_02_gs
# opt 6-311+g(2d,p) apfd int=(ultrafine,acc2e=12)

V(H2O)6 +3 S6 point group

3 3
 V                  0.00000000   -0.00000000    0.00000000
 O                  1.26550468    1.08083491    1.15457700
 O                  0.30327815   -1.63637666    1.15457700
 O                 -1.56878283    0.55554175    1.15457700
 O                 -1.26550468   -1.08083491   -1.15457700
 O                 -0.30327815    1.63637666   -1.15457700
 O                  1.56878283   -0.55554175   -1.15457700
 H                  1.85259875    0.73362839    1.84922566
 H                  1.36660400    2.04904065    1.15331748
 H                  1.09121926   -2.20803411    1.15331748
 H                 -0.29095856   -1.97121178    1.84922566
 H                 -2.45782326    0.15899346    1.15331748
 H                 -1.56164020    1.23758339    1.84922566
 H                 -1.36660400   -2.04904065   -1.15331748
 H                 -1.85259875   -0.73362839   -1.84922566
 H                  0.29095856    1.97121178   -1.84922566
 H                 -1.09121926    2.20803411   -1.15331748
 H                  1.56164020   -1.23758339   -1.84922566
 H                  2.45782326   -0.15899346   -1.15331748

--link1--
%Chk=x8_02_gs
# APFD 6-311+G(2d,p) Freq Int=(Ultrafine,Acc2E=12) Geom=Allcheck Guess=Read Pop=NPA Density=Current

