%Chk=x8_06_hh_tdopt
# td(Root=1)/6-311+g(2d,p) geom=connectivity apfd int=(ultrafine,acc2e=12) opt

H-Ph4-H: First excited state geometry optimization

0 1
 C                 -5.75189300    1.12214300   -0.42475300
 C                 -5.03622300    0.00000000    0.00000000
 C                 -5.75189300   -1.12214300    0.42475300
 C                 -7.13927400   -1.12271000    0.42520400
 C                 -7.83900800    0.00000000    0.00000000
 C                 -7.13927400    1.12271000   -0.42520400
 C                 -3.56211300    0.00000000    0.00000000
 C                 -2.84182400    1.12786300    0.39961000
 C                 -1.45715100    1.12784400    0.39975800
 C                 -0.73640000    0.00000000    0.00000000
 C                 -1.45715100   -1.12784400   -0.39975800
 C                 -2.84182400   -1.12786300   -0.39961000
 C                  0.73640000    0.00000000    0.00000000
 C                  1.45715200   -1.12784500    0.39975400
 C                  2.84182400   -1.12786400    0.39960700
 C                  3.56211300    0.00000000    0.00000000
 C                  2.84182400    1.12786400   -0.39960600
 C                  1.45715200    1.12784500   -0.39975400
 C                  5.03622300    0.00000000    0.00000000
 C                  5.75189300    1.12214400    0.42474900
 C                  7.13927400    1.12271200    0.42520000
 C                  7.83900800    0.00000000    0.00000000
 C                  7.13927400   -1.12271200   -0.42520000
 C                  5.75189300   -1.12214400   -0.42474900
 H                  8.92413700    0.00000000    0.00000000
 H                 -8.92413700    0.00000000    0.00000000
 H                  3.37714700   -2.00534400    0.74833300
 H                  0.92241400   -2.00525300    0.74951300
 H                  0.92241400    2.00525300   -0.74951300
 H                  3.37714700    2.00534400   -0.74833300
 H                  5.21174600    1.99307200    0.78240800
 H                  7.67713800    2.00109500    0.76772500
 H                  7.67713800   -2.00109500   -0.76772500
 H                  5.21174600   -1.99307200   -0.78240800
 H                 -0.92241400    2.00525000    0.74952100
 H                 -3.37714700    2.00534100    0.74833900
 H                 -3.37714700   -2.00534100   -0.74833900
 H                 -0.92241400   -2.00525000   -0.74952100
 H                 -5.21174600   -1.99306900    0.78241300
 H                 -7.67713800   -2.00109200    0.76773200
 H                 -7.67713800    2.00109200   -0.76773300
 H                 -5.21174500    1.99306900   -0.78241300

 1 2 1.5 6 1.5 42 1.0
 2 3 1.5 7 1.0
 3 4 1.5 39 1.0
 4 5 1.5 40 1.0
 5 6 1.5 26 1.0
 6 41 1.0
 7 8 1.5 12 1.5
 8 9 2.0 36 1.0
 9 10 1.5 35 1.0
 10 11 1.5 13 1.0
 11 12 2.0 38 1.0
 12 37 1.0
 13 14 1.5 18 1.5
 14 15 2.0 28 1.0
 15 16 1.5 27 1.0
 16 17 1.5 19 1.0
 17 18 2.0 30 1.0
 18 29 1.0
 19 20 1.5 24 1.5
 20 21 1.5 31 1.0
 21 22 1.5 32 1.0
 22 23 1.5 25 1.0
 23 24 1.5 33 1.0
 24 34 1.0
 25
 26
 27
 28
 29
 30
 31
 32
 33
 34
 35
 36
 37
 38
 39
 40
 41
 42

