%oldchk=x8_10_syn_dmso_3
%chk=x8_10_syn_dmso_4
# TD(root=1,read,nstates=6) APFD/6-311+G(2d,p) SCRF(Solvent=DMSO,ExternalIteration,Read) 
  Geom=Check Guess=Read Int=(Ultrafine,Acc2E=12)

Coumarin/syn/dmso: prepare for non-eq solvation emission
by saving the solvent reaction field from the excited state using the EI method

0 1

NonEq=write

--link1--
%chk=x8_10_syn_dmso_4
# APFD/6-311+G(2d,p) SCRF(Solvent=DMSO,Read) Geom=Check Guess=Read Int=(Ultrafine,Acc2E=12)

Coumarin/syn/dmso: read solvent reaction field from excited state and
compute energy of the ground state with non-eq solvation

0 1

NonEq=read

