%chk=x8_10_anti_dmso_3
# TD(Root=1,Read) Opt Freq APFD/6-311+G(2d,p) SCRF(Solvent=DMSO) Geom=Check Guess=Read Int=(Ultrafine,Acc2E=12)

Coumarin/anti/dmso: TD optimization

0 1

