%oldchk=x8_12_scan
%chk=x8_12_ci
# opt=conical casscf(6,6,nroot=2)/6-31g(d) geom=connectivity guess=read

Benzene-Benzvalene photoisomerization.
Search for Conical Intersection from puckered structure.
This is the structure from the final point of the previous scan.

0 1
 C                 -0.00102167    1.41444029    0.65552668
 C                  1.05268998    0.71960407   -0.07180766
 C                  1.17421991   -0.73117836    0.00758502
 C                  0.00096919   -1.47548943    0.15723694
 C                 -1.17466398   -0.73266820    0.01528703
 C                 -1.05124902    0.71677240   -0.07121024
 H                 -0.00213851    2.49008234    0.65971595
 H                  1.70764284    1.26441191   -0.73101407
 H                  2.13957144   -1.19158868   -0.09762670
 H                  0.00239705   -2.54073560    0.29270409
 H                 -2.13993860   -1.19377987   -0.08706302
 H                 -1.70847865    1.26012913   -0.72933402

 1 2 1.0 6 1.0 7 1.0
 2 3 1.0 8 1.0
 3 4 1.5 9 1.0
 4 5 1.5 10 1.0
 5 6 1.0 11 1.0
 6 12 1.0
 7
 8
 9
 10
 11
 12

